138
frame=1  max_jitter=0.1000A  shuffle=True  rotate=True
Co        0.97141362      0.19414993     -1.57155505
Co       -0.53765468     -0.06700538     -0.84132289
Co       -2.42506080     -0.64045683     -0.04487502
Co       -1.97921812      0.15671591      1.63014789
Co        1.61469463     -0.82734258      0.03691862
Co       -2.04046917     -0.08662553     -0.91723849
Co        0.02310517     -1.64268040     -0.08566521
Co       -2.10352408      0.85726050     -0.72854470
Co        2.07275115      1.18852457     -0.59168415
Co       -2.00908236     -1.19682441     -0.97201617
Co        0.05926296      1.04258553     -2.07873483
Co       -0.47446953     -0.33461721      2.46822081
Co       -0.47978347      1.69901250     -1.62854437
Co        1.27595144      1.29365499      1.43747520
Co       -0.85571377      0.35437618      0.04975095
Co       -1.40175880      0.22282151      0.87350245
Co       -0.87694719      1.23179543      0.53202025
Co        1.65957602     -0.00946216      0.17158361
Co       -1.66600701     -0.17488170      0.07303733
Co        0.90809100      0.60449396      2.27849504
Co        0.64171465      2.24769237      0.22211199
Co       -0.08408381     -0.99768035      2.21248922
Co        2.51763661     -0.38358773      0.02119690
Co       -0.58459352      0.54703271      1.47244712
Co        2.15949654     -0.85968731      0.75176900
Co        2.29786800     -0.84287841     -0.88210669
Co       -2.29235357      0.78523396      0.79528435
Co       -0.02324770     -0.83487699     -0.44590293
Co        1.30298236     -0.44405200     -0.66650104
Co        1.89728768     -0.31319795     -1.53887448
Co       -2.21617570     -0.18832786      0.85013905
Co        0.10335595      0.09630735     -1.58648856
Co        0.78085534      1.30384085     -0.25388873
Co       -0.62984059      1.44794551      1.89952174
Co        0.45747003      0.68063520      1.37506792
Co        1.29599987     -1.40619018      1.22313393
Co       -0.76067142     -2.19571732     -0.10054131
Co       -1.20600162     -1.33548534     -1.36022857
Co       -0.63603892     -1.40344770     -0.63798545
Co        0.59984900     -0.94918787      1.25032465
Co       -0.93785562      2.12648390      0.14541682
Co       -0.03001593      1.68946870     -0.81302634
Co        1.77816882     -0.55651061      1.59722945
Co        1.31691415      0.70961308     -0.71159143
Co       -0.10384581      2.59567558     -1.25943215
Co       -0.62106115     -2.19741136      0.79681622
Co        2.46274372      0.73252582      0.21306360
Co        0.28955023      1.54702254      1.93337565
Co        1.52978434      0.26127580     -2.38553101
Co        0.07260938     -0.92337257      0.46254793
Co       -1.64575461      0.80363919      0.10958809
Co        2.07317122      0.04483302      0.91623646
Co        0.97935338     -2.18584129     -0.03573799
Co       -0.92766827      0.03722815     -1.68096386
Co        0.59963727     -1.45210324     -1.90764775
Co        0.90156534     -0.54914173     -0.00542008
Co        1.33594150      1.58149632     -1.21301119
Co        0.89079162     -1.34149010      0.55943494
Co        0.57390313     -1.68377299      1.64926046
Co       -1.47386570      1.26753070     -1.15237842
Co       -1.34749768     -0.56404255     -0.85918403
Co       -0.17313488      1.54979644      0.24063330
Co        1.44524004      1.90758146     -0.24718504
Co       -1.88319724     -0.83585889      1.58440132
Co       -0.07230678      2.40458176     -0.17368893
Co       -1.52880615     -2.08520272      0.38937158
Co       -0.22141732      1.55747497      1.16613827
Co       -0.60041224     -0.13398182      0.87007239
Co        1.39551281     -0.43191881      0.88689087
Co       -0.96564846     -0.69881123     -2.16280978
Co       -0.57880775     -2.14309827     -1.22907388
Co       -0.31139274     -1.57957093     -1.84182360
Co       -1.35165347      0.55661910     -0.70932834
Co       -1.82086943      1.76123323     -0.42864867
Co       -1.64832578     -0.41828752     -1.69696772
Co       -0.96980811      1.99864892      1.26720840
Co        0.92972089     -2.20481985      0.82831175
Co       -1.41005059     -1.95710374     -0.72488387
Co       -0.84831372     -0.48813130     -0.08330496
Co        0.78891011      0.47191082      0.15870065
Co        1.57881771      1.92547611      0.72846693
Co        0.42661034      0.86500367     -1.12903180
Co        0.12969468     -2.42262788      0.26157658
Co       -1.35969869     -1.48412740      1.17117979
Co       -1.42832854      1.15686560      1.41744237
Co        0.67708167      2.05468032      1.28288560
Co        1.59462747      1.02191655      0.17843175
Co        0.99582224     -1.95586196     -1.20422276
Co        0.15560758     -2.34314365     -0.70971725
Co       -0.18189602      2.36228651      0.78863969
Co        0.62844694      0.14270317     -2.33388895
Co       -0.90726856      0.80220121     -2.04108572
Co        0.86123004     -0.00896193      1.61148971
Co       -0.46453471     -0.71620100     -1.44231506
Co        0.06782127     -1.72117369      0.85417677
Co       -1.76591465      1.64585016      0.69517255
Co        1.83223668     -1.63217727     -0.50327310
Co       -1.21366387      0.48113412      2.15291131
Co       -0.51669268      0.78749353     -1.28814280
Co        1.05368708     -0.87715680      2.17357757
Co       -0.75505773     -1.36427371      0.50564692
Co       -0.09887567      0.84199342     -0.40032514
Co        0.47649127     -0.02474177      0.88549055
Co       -0.10510139      0.65799355      0.56950939
Co        1.65681222      0.52254588      1.81602483
Co        0.46490420      1.82708466     -1.69364566
Co        1.80256172     -1.82612003      0.37203030
Co        0.94057972      1.07467621     -1.97230937
Co        1.18756866      0.48268259      0.89903903
Co       -0.50072562      0.23870124     -2.42558811
Co        0.16619106     -0.58020317     -2.10986574
Co        0.84548451     -1.13563707     -0.62591187
Co       -0.42013691     -1.79807521      1.71155525
Co        1.05839708     -0.49691976     -2.07112830
Co       -1.48408056     -1.19828350     -0.06082173
Co       -0.94098855     -1.04808536      1.98233685
Co        1.37377824     -1.24159759     -1.30314715
Co        0.49959696      0.07372016     -0.80961176
Co        2.20393092      0.18313773     -0.65025749
Co        1.78014557      0.82700209     -1.50787639
Co       -1.12390162     -0.16191474      1.70363420
Co       -0.01070447     -0.17512032      1.57111914
Co       -0.03979641      0.55086414      2.33117074
Co       -1.36018428     -0.67520109      0.74551759
Co       -2.55568680      0.22667368      0.07136585
Co       -1.75110452      0.57847386     -1.64918021
Co        0.64649360      2.32005668     -0.84558953
Co        0.09027015     -0.01190434      0.10897282
Co        0.13229458     -1.63458770     -1.10846237
Co        0.76245686      1.34144174      0.65639299
Co        2.02083595      0.98711632      1.07510617
Co       -0.88565136      1.26125341     -0.40773503
Co       -1.47783663      0.06649262     -2.40085092
Co        0.66127100     -0.60716821     -1.35667718
Co        0.52427235     -0.29207037      2.48097682
Co       -0.46146865     -1.05963042      1.27531440
Co       -0.94145311      2.22557132     -0.76698769
Co       -2.12763722     -1.28022022      0.70913981
138
frame=2  max_jitter=0.1000A  shuffle=True  rotate=True
Co       -1.78250007     -0.82147480      1.22381651
Co       -0.94502197     -0.10508261      2.61189376
Co        0.84789398     -1.31297603      0.30413137
Co        0.77420130     -0.93306442     -1.29947783
Co       -0.50112006     -2.12741125     -0.70200629
Co       -1.19259289      2.34289091      0.94563299
Co       -1.22673701     -2.17633703     -0.00336364
Co       -1.40042631      0.71275398      0.42311553
Co       -1.82846967     -1.54624405      0.67506744
Co       -2.04858455     -1.09488472     -1.29743775
Co        1.01575010     -1.73433209     -1.54220627
Co       -2.38793756     -0.73256571      0.51613440
Co        0.03125457     -1.35626638      0.94946526
Co        1.92175911     -1.40507910      0.23495995
Co       -1.90055009      1.07943867     -1.11257783
Co        0.32487983      2.19937939     -1.28903936
Co       -0.73557339     -0.91298342      1.27002488
Co       -1.07120611      0.89488372     -1.25470631
Co        0.13728354      1.28496039      0.96172461
Co        0.20288293      1.28214316     -1.99443617
Co       -0.48045423      0.42222497     -0.57150453
Co        2.50532639      0.34281633      0.45329447
Co       -1.18174455      1.71696553      1.58698483
Co       -1.01133950      0.08088244      0.01501613
Co       -0.69728318     -1.02541007     -2.27711751
Co       -1.39922562     -0.50586163     -0.55350266
Co        1.67942566      1.53969622     -0.86504220
Co        0.84897702      1.24788419      0.20937074
Co        1.45028452      0.43299910      1.92731468
Co        1.01494766     -0.13477584      1.21955539
Co        0.42055870     -0.44546681      0.51096977
Co        0.43941012      2.47348715     -0.34548808
Co       -1.91641593      0.05095953      0.12003299
Co        0.48238915      0.53645109      0.53310169
Co        0.04422592     -0.44684218     -2.43557680
Co        2.23589668     -0.15248024     -1.22637968
Co        1.29187549     -0.80266596     -0.56654330
Co        1.76445042      0.75976014     -1.40308570
Co        1.40042108      0.48874625      0.53713369
Co        0.50910110     -2.12931149      0.66864895
Co       -0.73461046      0.82348309      1.08898246
Co       -0.89189283      1.25941857     -0.33962066
Co        0.98553263      0.76310870     -2.11614088
Co       -0.38141968     -0.76848385      0.23812928
Co        1.10137865     -0.91275074     -2.13842297
Co        1.91324604     -1.00918469      1.02952663
Co        1.17303324     -2.08828684     -0.02258084
Co       -0.35296057      0.06647813      0.86893737
Co        1.30102542     -1.93729512      0.97690432
Co        0.34680482     -2.12442092     -1.23082335
Co       -0.16912471      0.38955331      2.38333979
Co        0.42367028      0.71753861     -0.26203636
Co        0.28065530     -0.82147619     -0.27928054
Co       -0.99834640     -0.91706549     -1.33719289
Co       -0.16612014      1.35957145     -1.06808201
Co       -1.49143305     -0.59593964     -1.94964631
Co        1.29377356     -0.06935729     -0.97814507
Co       -0.19980692      1.28670014      1.80396114
Co        1.58009568      1.49193703      1.81222442
Co       -0.97827040     -0.87188015      2.00583053
Co       -1.46429359     -1.91125890     -1.02712027
Co        1.48718736      1.79825848      0.84200434
Co        2.31977414     -0.59773157      0.30465681
Co       -2.05226560      0.05705097     -1.14381955
Co        1.07308235     -1.02735517      1.27143242
Co        0.12426120     -0.58503525      1.43509829
Co        1.08211313      1.50375880     -1.66942827
Co        0.33615997     -2.55651287     -0.43377333
Co       -0.48371236      2.10594770     -0.67406575
Co        0.84072837      1.61771158     -0.66579227
Co        1.69386246     -0.09903930     -2.00486528
Co       -0.68012677     -0.10588679     -2.26268122
Co        0.73560976     -1.06875770      2.08232818
Co       -0.58742847      0.01569596      1.71615169
Co       -0.22731079     -2.21200388      1.25822485
Co       -1.02563228      0.04791918     -1.26947630
Co        1.95799808      0.01575085      1.10390529
Co        0.16706099      0.43529883      1.51990679
Co        0.68952569      0.98426745      2.05952603
Co       -1.69954860      1.59609704      0.69980847
Co        0.76202666     -1.70338362     -0.60246265
Co       -0.03418469     -1.68070621      0.05489307
Co       -0.77182842      0.98982121     -2.17498092
Co        1.91304903      1.02114645      1.03007745
Co       -0.44049451     -2.51843171      0.34943181
Co       -1.14734928     -1.66761964      1.55135503
Co        1.94345671      1.33368002      0.19365357
Co        0.74437654      0.69745631     -1.16955901
Co        1.40477810     -0.52466832      0.48842600
Co       -1.49006400      0.48073017     -2.01263636
Co       -0.11417461     -0.56922145      2.39045222
Co        0.57660864     -1.95535636      1.60702856
Co       -0.72177060     -1.88355744     -1.64676470
Co       -0.07684942     -1.33336416     -0.94198943
Co       -1.24219538     -0.02175048      0.94603511
Co        0.61992085     -0.06606895      2.15450134
Co       -0.85397620     -1.35828033     -0.41988506
Co       -1.47862625      0.47252261     -0.50223552
Co       -1.35172627     -0.83470351      0.32110433
Co        0.10335726      1.67406105      0.02595329
Co        1.38160512      0.84999492     -0.50404438
Co        0.71953361     -0.01503352     -1.83315073
Co       -0.25315276     -1.26987041      1.82064382
Co       -1.08098766      0.82942807      2.13933041
Co       -2.14360596     -0.04068588      1.07653619
Co        1.89564757     -0.08142677     -0.25257420
Co        2.33455564      0.77444399     -0.66599191
Co        2.20024549     -0.87710421     -0.61038369
Co        0.23995976      0.52356529     -2.45792522
Co        1.64562810     -0.79540764     -1.43820112
Co        0.27381073     -0.00402590     -0.89407335
Co        0.09941052     -1.28120977     -1.90511134
Co       -1.60699439      0.92027948      1.26072247
Co        0.59152063      2.21272713      0.63581021
Co       -0.30526268      2.11774077      1.19623243
Co       -2.36552484      0.80914839      0.53567948
Co       -1.30921191      1.85749623     -1.04236548
Co       -0.65083905      1.70602762     -1.57846001
Co       -0.38132320      2.39390751      0.32217169
Co        1.33119893      2.17036933      0.05414703
Co        1.47663279     -0.58844099      1.85114859
Co       -0.18748324     -0.50076255     -1.54852922
Co       -0.79511457      1.49065245      0.55310154
Co        1.63572317     -1.60080115     -0.72330848
Co       -1.56073740      0.03857341      1.84372573
Co        0.03983640      0.04445547     -0.02943331
Co        1.04382832      1.00297441      1.15511263
Co       -0.85081379     -1.66264186      0.65800544
Co        0.73974697      1.77192158      1.60860261
Co       -0.56840240     -0.46189747     -0.73014409
Co       -0.43134177      0.77883432      0.17405263
Co       -2.48308534      0.60695487     -0.43562655
Co       -1.77685380      1.41732772     -0.17179318
Co        0.96300674     -0.03664877     -0.08742823
Co       -1.90357235     -1.36162802     -0.30561107
Co       -0.11775426      0.40310580     -1.61950663
Co       -1.27382581      2.04427948     -0.13772224
Co       -2.43112434     -0.41672103     -0.51424592
138
frame=3  max_jitter=0.1000A  shuffle=True  rotate=True
Co        1.52521071      0.07918591     -0.21517636
Co       -1.60625193     -1.47134814      1.13618042
Co        1.75461183      0.00378217      1.71536642
Co       -1.29709270      1.89086249      0.31987385
Co       -2.23751829      0.54278737     -0.01318275
Co        0.85162494      0.35558090      0.13048370
Co       -1.97370946     -0.54796085      1.14987065
Co        2.12228163      1.37767166     -0.37466278
Co       -1.33694303      0.80805347      0.12794822
Co       -1.34791018     -1.93581305      0.38455017
Co        0.51482189     -0.64094101     -1.35944150
Co        1.92212090      1.05256556      1.22840047
Co        1.97477523     -1.35689747     -0.55816198
Co        1.08864843      0.69172625      1.13246460
Co        1.96449367      0.60761660     -0.98716764
Co        1.47187876     -0.80775474      1.99995073
Co       -0.72868605     -2.10284369      1.19985743
Co       -1.54682955      1.66444881      1.16812366
Co        1.52638844     -0.14832951      0.66335981
Co       -1.80191681      0.02509797     -1.49973592
Co       -1.81725484     -0.81172357     -0.35822858
Co       -0.44789679     -0.52911176     -1.72431579
Co        0.03031096      1.76255160     -1.75387607
Co        0.91212260     -1.65188108      1.63376964
Co        1.12088193      0.12916927     -1.14162481
Co       -1.26765905     -0.98578738      0.58573939
Co        0.55336562     -2.37535429      0.14706672
Co       -1.05445563     -1.54193767     -1.18224024
Co        0.99801894     -0.14600076      2.37895379
Co       -0.38908330     -0.57534590      0.63436240
Co       -0.53228871      0.58494059      1.51239905
Co       -0.64770503      2.13601811      1.03884550
Co       -0.95279003      1.67206116     -1.59911548
Co       -0.73509829     -1.21495067      1.33802024
Co        0.35565597      1.46125693      2.12041290
Co       -0.29405503     -0.41440866      1.63263086
Co        0.32493362     -0.91076257     -2.31338175
Co        0.02801823      0.03951277     -2.49861260
Co        0.74322938      1.14264242     -1.30138211
Co        2.08918521     -1.10105217     -1.39831879
Co       -1.08722103     -0.02152914     -2.22811956
Co        0.78837671     -0.32136894      1.32414571
Co       -2.43915034     -0.23508972     -0.69782569
Co        1.77297224      1.69434952      0.66865815
Co       -2.07151981     -1.33224678      0.47511248
Co       -0.52632885     -2.51008276      0.40542918
Co        0.11861114      2.16761030      1.33474334
Co        0.22614325     -1.12473395      1.17810914
Co       -0.54228130      2.39896104     -0.11985019
Co        1.25764849     -0.84558858     -0.04250530
Co       -1.46057096      0.84567088     -1.77604813
Co       -0.29237829     -1.08437661     -1.03674870
Co       -0.59759699     -0.73100828     -2.55441713
Co        0.45014458     -1.64144843     -1.69070382
Co        0.66375389     -2.25603661     -0.79443909
Co        0.65318795      2.13000672     -1.14050425
Co        0.64809393     -1.28077239     -0.68207602
Co        0.07802219      0.03889156      0.02129221
Co       -0.56313604      0.79581836     -2.09463813
Co       -2.21987890      0.79663171     -1.05493830
Co       -0.10349255     -0.89371695     -0.20964406
Co        1.35167627     -1.92548992     -0.13706958
Co       -1.02523876     -2.29165810     -0.61043644
Co       -0.45624856      1.48206744      1.77808095
Co        1.29795262      1.82457769     -0.21848814
Co       -0.61723866      1.50841231     -0.32886003
Co        0.44021988      2.36658611     -0.26833428
Co       -0.09710155     -0.13930103      2.50477527
Co        1.73002146     -0.10724065     -1.69915884
Co        1.14311722     -1.07571631      1.00001333
Co       -1.97456602     -0.91063611     -1.12993166
Co        0.43966718      1.45258583     -0.40111689
Co       -1.11626845     -0.23478295      1.27454950
Co        1.24360328     -2.03280609      0.74077918
Co        0.43251389     -0.88977796      2.18735952
Co       -0.91378851     -0.07505801      2.22094731
Co       -0.82274543      1.32598799      0.70921193
Co        0.75861156     -0.31374677     -0.46551299
Co       -1.80862845      0.18970702      1.73590312
Co       -0.34608892      0.79676086      2.46468481
Co        0.15646646     -2.06707402      0.95250895
Co        1.05439263      1.72290342     -1.95767988
Co       -0.33967361     -1.33867337     -2.03208501
Co       -0.90337782      0.35636626     -1.40855222
Co        0.11141766      0.33141496     -1.53708640
Co        1.14143846      0.77273386      2.11811673
Co        2.13940523     -0.70220201      1.11564562
Co       -1.33116606     -0.95357359     -1.89087407
Co        2.31472578     -0.60187164      0.10900557
Co        0.14352692      1.23799208      1.16710925
Co       -1.18676893      1.00282900     -0.94872551
Co       -0.04331908      1.87696555      0.40664941
Co       -0.19546872      2.03731618     -0.92377494
Co        0.79872883      1.30614931      0.32495085
Co        0.87339418     -0.04292259     -2.17392222
Co        1.13064161      0.87536509     -0.40977678
Co        0.97937533      2.28174421      0.52557715
Co       -1.52635058      0.74956887      1.13781958
Co       -1.58477874     -0.03050586      0.42696985
Co       -0.46085445     -0.84613165      2.29978721
Co       -1.09013752     -0.66069466     -1.11027792
Co        1.98096152     -1.54484715      0.54202036
Co        0.27327348      0.38252374      1.90681276
Co        0.37105762      0.60972266     -0.71055026
Co       -1.17672843      1.95502350     -0.61210667
Co       -0.28207203      1.09782671     -1.04409857
Co       -0.13886844     -0.24466647     -0.84310727
Co       -2.05210889      1.50709793     -0.34766296
Co       -0.78713292     -0.35276968     -0.12489991
Co        2.36040929      0.47582195     -0.02100380
Co        0.60984900     -0.62281967      0.46612464
Co        0.65452623     -1.53688015      0.39473410
Co       -1.20864726      0.94732524      2.03726150
Co       -2.33815878      0.35076478      0.92060794
Co       -2.39716221     -0.30139022      0.18270734
Co        1.51406419      0.81521344     -1.77838871
Co       -0.60022035      0.58893196     -0.36136555
Co       -0.25548166     -2.03148640     -1.25053651
Co        1.21687716     -0.86560739     -1.82231680
Co       -0.01669513     -1.88109471     -0.36318227
Co        1.35901981     -0.73721790     -1.01032608
Co       -1.40679339     -0.83364156      1.99665283
Co       -0.80478949      0.36312424      0.53455722
Co       -0.82887862     -1.30825782     -0.42194627
Co       -0.42969642     -1.57399251      0.55285923
Co        2.33855919     -0.41774045     -0.73974217
Co        1.48371838      1.48777456     -1.11648139
Co       -1.68265755     -1.59747641     -0.43258971
Co        0.10478523      0.86010886      0.29710890
Co        0.21315878      0.24274606      0.96473015
Co        2.39847252      0.25456221      0.81650172
Co        1.62808172      0.72250919      0.33850089
Co        1.33302611     -1.61740663     -1.24320599
Co       -2.06947631      1.22466483      0.67974869
Co        0.43027912      0.88024661     -2.24901722
Co       -0.09478615     -1.63566635      1.90160442
Co        1.12193330      1.64634023      1.41088301
Co       -1.46061245      0.11096144     -0.67300222
