138

Co    1.528990     1.487850    -1.253510
Co    1.345410     0.079922     2.105330
Co    1.367090     0.747259    -1.913490
Co   -1.019650    -0.705483     1.095510
Co    0.478878     0.364019     0.733567
Co    0.474475    -1.660590    -0.650946
Co   -0.850432     0.036421     1.742050
Co    0.950439     0.751524    -1.041640
Co   -1.300670     0.841384    -0.581472
Co    1.185760     0.002138    -2.540210
Co   -0.525893    -0.601716     2.392930
Co   -0.093097    -2.430620    -0.456821
Co   -1.668680     1.085510     1.280930
Co    0.814653    -2.329110    -0.026244
Co   -0.024911     2.081070     1.438610
Co    1.150600    -0.898620     2.020370
Co   -0.671200    -0.680381    -2.282530
Co   -0.301050    -1.177890    -1.037080
Co   -1.585420     1.723940    -0.242669
Co   -2.171630     1.250190     0.424579
Co    2.037110     0.935629     0.522317
Co    0.820243     1.992050     0.898895
Co    0.528351     0.744816    -0.174707
Co   -0.288973     0.861023     0.364566
Co   -0.621713     1.510440    -0.263912
Co    0.230766     1.223380     1.089890
Co   -0.952386     2.151520    -0.898291
Co   -1.496030    -0.140258    -0.666553
Co   -0.882452     2.369860     0.076729
Co    0.216778    -0.811218    -0.308561
Co    1.566100    -1.433800     1.270650
Co    0.880664    -0.156973     0.001901
Co    0.633515     1.408320    -1.706750
Co    0.113602    -1.206560    -1.933380
Co    1.426470     0.186144     0.720956
Co   -1.494740     1.917190     0.741151
Co    0.415420    -0.262527     2.281940
Co    0.045570    -1.987410     1.503680
Co   -1.546610    -0.528090     0.258679
Co    0.602133     0.725041     2.335620
Co   -0.351859    -1.566280    -0.110642
Co   -0.047195     2.284160    -0.478682
Co   -0.358031     0.645843    -0.595517
Co   -1.661440    -1.412650    -1.207320
Co    0.263196    -0.340652    -2.429770
Co    1.313560    -0.168897    -0.862946
Co   -0.702315    -1.363870     1.759290
Co   -1.597930    -1.442850     1.306800
Co    0.281211     1.611150     0.164647
Co    0.896982    -1.699050    -1.530940
Co   -0.483637     0.307385    -2.229280
Co   -0.438249     0.029752     0.874535
Co    0.025859     2.471130     0.507831
Co    2.260750    -0.355047    -0.893186
Co   -1.799220     0.221806     1.781230
Co   -1.434280    -0.703079     1.961930
Co    0.817716    -0.264358     1.380310
Co    0.856070     2.353140    -0.039946
Co    1.957760     0.532836     1.441600
Co   -0.687886     1.283660    -1.234090
Co    1.230730    -0.796760     0.635459
Co   -2.438730     0.042353    -0.644825
Co   -0.964741     1.738720     1.582930
Co   -0.549967    -0.317846    -0.679027
Co   -1.990350    -0.530850     1.140640
Co   -1.230450     1.060430     0.396544
Co   -2.242240     1.029870    -0.559239
Co   -0.279996     1.286490    -2.112160
Co    1.731620    -0.176827    -1.733520
Co    0.785481     2.132580    -1.023810
Co    0.754999     1.576500     1.813270
Co   -0.181817     1.251280     1.986450
Co   -2.127970    -1.264440     0.465067
Co    1.106940     1.483850    -0.382262
Co   -0.887064     0.309727    -1.327040
Co   -0.824065    -1.531440    -1.760440
Co    1.516660    -1.679010     0.294913
Co    1.787020    -0.457282     1.376760
Co    0.883521    -2.106460     0.951480
Co    0.365419     0.016512    -0.816343
Co    0.459453     0.646260    -2.344430
Co   -2.026620    -0.487648    -1.388150
Co   -2.489640    -0.347736     0.285961
Co   -1.855460     0.502196    -1.324430
Co    1.063550     1.104850     0.540411
Co   -1.635340     1.478540    -1.217720
Co   -1.382460     0.213958     0.915852
Co    1.426250    -1.877260    -0.690353
Co    1.006590     0.712999     1.456890
Co    0.618108    -1.238230     1.287600
Co    0.774332     0.009171    -1.675290
Co   -0.703516     0.883018     1.233390
Co    0.634387    -0.838208    -1.180570
Co    1.592700     1.457260     1.260430
Co    2.425270     0.390918    -0.233058
Co    0.210651    -1.241030     2.164950
Co    0.211058     1.391920    -0.813426
Co    1.921450     0.575090    -1.087890
Co    0.286935    -0.599638     0.650023
Co   -0.114601     2.032260    -1.451010
Co    1.049650    -0.848938    -2.052450
Co    1.813700    -0.340823    -0.024682
Co    1.643030     1.843790     0.338063
Co    2.178120    -0.985496     0.611308
Co   -0.021586    -2.239490     0.531092
Co   -0.116675    -0.604713     1.523980
Co    2.058770     1.309500    -0.412218
Co   -1.711870    -1.799240    -0.284943
Co   -1.897860     0.389100     0.078686
Co    2.108050    -1.205360    -0.371520
Co   -2.324560     0.398751     0.946974
Co    1.599900    -1.040760    -1.228150
Co   -1.116300     0.894776     2.100630
Co   -1.414000    -0.034912    -2.052540
Co   -0.888617    -1.947580    -0.845928
Co   -1.076300    -0.667658    -1.403350
Co   -0.955738     0.203978     0.052733
Co    0.078765     0.376893     1.609200
Co   -0.548297     1.718980     0.709841
Co   -1.176780    -1.438490     0.435878
Co   -0.925643    -2.308530     0.093284
Co   -0.280764    -1.346740     0.866638
Co   -0.042093    -2.040620    -1.386900
Co   -1.219220     0.943660    -1.967660
Co   -0.854561    -2.087860     1.076590
Co    2.753150    -0.525694    -0.051071
Co    0.552370    -1.465250     0.318247
Co   -0.149152    -0.332102    -1.555930
Co    0.733573    -2.515930    -0.995443
Co    2.374720     0.001269     0.697141
Co   -0.037560     0.024402     0.028805
Co   -0.329322     0.385717     2.478680
Co   -2.105750    -0.891367    -0.469496
Co    1.476920     0.574271    -0.205576
Co   -0.599471    -0.698596     0.229256
Co    0.046328     0.650918    -1.470820
Co    1.161500    -1.015690    -0.343462
Co   -1.133040    -1.059800    -0.486869
138
frame=1  max_jitter=0.1000A  shuffle=True  rotate=True
Co        0.97141362      0.19414993     -1.57155505
Co       -0.53765468     -0.06700538     -0.84132289
Co       -2.42506080     -0.64045683     -0.04487502
Co       -1.97921812      0.15671591      1.63014789
Co        1.61469463     -0.82734258      0.03691862
Co       -2.04046917     -0.08662553     -0.91723849
Co        0.02310517     -1.64268040     -0.08566521
Co       -2.10352408      0.85726050     -0.72854470
Co        2.07275115      1.18852457     -0.59168415
Co       -2.00908236     -1.19682441     -0.97201617
Co        0.05926296      1.04258553     -2.07873483
Co       -0.47446953     -0.33461721      2.46822081
Co       -0.47978347      1.69901250     -1.62854437
Co        1.27595144      1.29365499      1.43747520
Co       -0.85571377      0.35437618      0.04975095
Co       -1.40175880      0.22282151      0.87350245
Co       -0.87694719      1.23179543      0.53202025
Co        1.65957602     -0.00946216      0.17158361
Co       -1.66600701     -0.17488170      0.07303733
Co        0.90809100      0.60449396      2.27849504
Co        0.64171465      2.24769237      0.22211199
Co       -0.08408381     -0.99768035      2.21248922
Co        2.51763661     -0.38358773      0.02119690
Co       -0.58459352      0.54703271      1.47244712
Co        2.15949654     -0.85968731      0.75176900
Co        2.29786800     -0.84287841     -0.88210669
Co       -2.29235357      0.78523396      0.79528435
Co       -0.02324770     -0.83487699     -0.44590293
Co        1.30298236     -0.44405200     -0.66650104
Co        1.89728768     -0.31319795     -1.53887448
Co       -2.21617570     -0.18832786      0.85013905
Co        0.10335595      0.09630735     -1.58648856
Co        0.78085534      1.30384085     -0.25388873
Co       -0.62984059      1.44794551      1.89952174
Co        0.45747003      0.68063520      1.37506792
Co        1.29599987     -1.40619018      1.22313393
Co       -0.76067142     -2.19571732     -0.10054131
Co       -1.20600162     -1.33548534     -1.36022857
Co       -0.63603892     -1.40344770     -0.63798545
Co        0.59984900     -0.94918787      1.25032465
Co       -0.93785562      2.12648390      0.14541682
Co       -0.03001593      1.68946870     -0.81302634
Co        1.77816882     -0.55651061      1.59722945
Co        1.31691415      0.70961308     -0.71159143
Co       -0.10384581      2.59567558     -1.25943215
Co       -0.62106115     -2.19741136      0.79681622
Co        2.46274372      0.73252582      0.21306360
Co        0.28955023      1.54702254      1.93337565
Co        1.52978434      0.26127580     -2.38553101
Co        0.07260938     -0.92337257      0.46254793
Co       -1.64575461      0.80363919      0.10958809
Co        2.07317122      0.04483302      0.91623646
Co        0.97935338     -2.18584129     -0.03573799
Co       -0.92766827      0.03722815     -1.68096386
Co        0.59963727     -1.45210324     -1.90764775
Co        0.90156534     -0.54914173     -0.00542008
Co        1.33594150      1.58149632     -1.21301119
Co        0.89079162     -1.34149010      0.55943494
Co        0.57390313     -1.68377299      1.64926046
Co       -1.47386570      1.26753070     -1.15237842
Co       -1.34749768     -0.56404255     -0.85918403
Co       -0.17313488      1.54979644      0.24063330
Co        1.44524004      1.90758146     -0.24718504
Co       -1.88319724     -0.83585889      1.58440132
Co       -0.07230678      2.40458176     -0.17368893
Co       -1.52880615     -2.08520272      0.38937158
Co       -0.22141732      1.55747497      1.16613827
Co       -0.60041224     -0.13398182      0.87007239
Co        1.39551281     -0.43191881      0.88689087
Co       -0.96564846     -0.69881123     -2.16280978
Co       -0.57880775     -2.14309827     -1.22907388
Co       -0.31139274     -1.57957093     -1.84182360
Co       -1.35165347      0.55661910     -0.70932834
Co       -1.82086943      1.76123323     -0.42864867
Co       -1.64832578     -0.41828752     -1.69696772
Co       -0.96980811      1.99864892      1.26720840
Co        0.92972089     -2.20481985      0.82831175
Co       -1.41005059     -1.95710374     -0.72488387
Co       -0.84831372     -0.48813130     -0.08330496
Co        0.78891011      0.47191082      0.15870065
Co        1.57881771      1.92547611      0.72846693
Co        0.42661034      0.86500367     -1.12903180
Co        0.12969468     -2.42262788      0.26157658
Co       -1.35969869     -1.48412740      1.17117979
Co       -1.42832854      1.15686560      1.41744237
Co        0.67708167      2.05468032      1.28288560
Co        1.59462747      1.02191655      0.17843175
Co        0.99582224     -1.95586196     -1.20422276
Co        0.15560758     -2.34314365     -0.70971725
Co       -0.18189602      2.36228651      0.78863969
Co        0.62844694      0.14270317     -2.33388895
Co       -0.90726856      0.80220121     -2.04108572
Co        0.86123004     -0.00896193      1.61148971
Co       -0.46453471     -0.71620100     -1.44231506
Co        0.06782127     -1.72117369      0.85417677
Co       -1.76591465      1.64585016      0.69517255
Co        1.83223668     -1.63217727     -0.50327310
Co       -1.21366387      0.48113412      2.15291131
Co       -0.51669268      0.78749353     -1.28814280
Co        1.05368708     -0.87715680      2.17357757
Co       -0.75505773     -1.36427371      0.50564692
Co       -0.09887567      0.84199342     -0.40032514
Co        0.47649127     -0.02474177      0.88549055
Co       -0.10510139      0.65799355      0.56950939
Co        1.65681222      0.52254588      1.81602483
Co        0.46490420      1.82708466     -1.69364566
Co        1.80256172     -1.82612003      0.37203030
Co        0.94057972      1.07467621     -1.97230937
Co        1.18756866      0.48268259      0.89903903
Co       -0.50072562      0.23870124     -2.42558811
Co        0.16619106     -0.58020317     -2.10986574
Co        0.84548451     -1.13563707     -0.62591187
Co       -0.42013691     -1.79807521      1.71155525
Co        1.05839708     -0.49691976     -2.07112830
Co       -1.48408056     -1.19828350     -0.06082173
Co       -0.94098855     -1.04808536      1.98233685
Co        1.37377824     -1.24159759     -1.30314715
Co        0.49959696      0.07372016     -0.80961176
Co        2.20393092      0.18313773     -0.65025749
Co        1.78014557      0.82700209     -1.50787639
Co       -1.12390162     -0.16191474      1.70363420
Co       -0.01070447     -0.17512032      1.57111914
Co       -0.03979641      0.55086414      2.33117074
Co       -1.36018428     -0.67520109      0.74551759
Co       -2.55568680      0.22667368      0.07136585
Co       -1.75110452      0.57847386     -1.64918021
Co        0.64649360      2.32005668     -0.84558953
Co        0.09027015     -0.01190434      0.10897282
Co        0.13229458     -1.63458770     -1.10846237
Co        0.76245686      1.34144174      0.65639299
Co        2.02083595      0.98711632      1.07510617
Co       -0.88565136      1.26125341     -0.40773503
Co       -1.47783663      0.06649262     -2.40085092
Co        0.66127100     -0.60716821     -1.35667718
Co        0.52427235     -0.29207037      2.48097682
Co       -0.46146865     -1.05963042      1.27531440
Co       -0.94145311      2.22557132     -0.76698769
Co       -2.12763722     -1.28022022      0.70913981
138
frame=2  max_jitter=0.1000A  shuffle=True  rotate=True
Co       -1.78250007     -0.82147480      1.22381651
Co       -0.94502197     -0.10508261      2.61189376
Co        0.84789398     -1.31297603      0.30413137
Co        0.77420130     -0.93306442     -1.29947783
Co       -0.50112006     -2.12741125     -0.70200629
Co       -1.19259289      2.34289091      0.94563299
Co       -1.22673701     -2.17633703     -0.00336364
Co       -1.40042631      0.71275398      0.42311553
Co       -1.82846967     -1.54624405      0.67506744
Co       -2.04858455     -1.09488472     -1.29743775
Co        1.01575010     -1.73433209     -1.54220627
Co       -2.38793756     -0.73256571      0.51613440
Co        0.03125457     -1.35626638      0.94946526
Co        1.92175911     -1.40507910      0.23495995
Co       -1.90055009      1.07943867     -1.11257783
Co        0.32487983      2.19937939     -1.28903936
Co       -0.73557339     -0.91298342      1.27002488
Co       -1.07120611      0.89488372     -1.25470631
Co        0.13728354      1.28496039      0.96172461
Co        0.20288293      1.28214316     -1.99443617
Co       -0.48045423      0.42222497     -0.57150453
Co        2.50532639      0.34281633      0.45329447
Co       -1.18174455      1.71696553      1.58698483
Co       -1.01133950      0.08088244      0.01501613
Co       -0.69728318     -1.02541007     -2.27711751
Co       -1.39922562     -0.50586163     -0.55350266
Co        1.67942566      1.53969622     -0.86504220
Co        0.84897702      1.24788419      0.20937074
Co        1.45028452      0.43299910      1.92731468
Co        1.01494766     -0.13477584      1.21955539
Co        0.42055870     -0.44546681      0.51096977
Co        0.43941012      2.47348715     -0.34548808
Co       -1.91641593      0.05095953      0.12003299
Co        0.48238915      0.53645109      0.53310169
Co        0.04422592     -0.44684218     -2.43557680
Co        2.23589668     -0.15248024     -1.22637968
Co        1.29187549     -0.80266596     -0.56654330
Co        1.76445042      0.75976014     -1.40308570
Co        1.40042108      0.48874625      0.53713369
Co        0.50910110     -2.12931149      0.66864895
Co       -0.73461046      0.82348309      1.08898246
Co       -0.89189283      1.25941857     -0.33962066
Co        0.98553263      0.76310870     -2.11614088
Co       -0.38141968     -0.76848385      0.23812928
Co        1.10137865     -0.91275074     -2.13842297
Co        1.91324604     -1.00918469      1.02952663
Co        1.17303324     -2.08828684     -0.02258084
Co       -0.35296057      0.06647813      0.86893737
Co        1.30102542     -1.93729512      0.97690432
Co        0.34680482     -2.12442092     -1.23082335
Co       -0.16912471      0.38955331      2.38333979
Co        0.42367028      0.71753861     -0.26203636
Co        0.28065530     -0.82147619     -0.27928054
Co       -0.99834640     -0.91706549     -1.33719289
Co       -0.16612014      1.35957145     -1.06808201
Co       -1.49143305     -0.59593964     -1.94964631
Co        1.29377356     -0.06935729     -0.97814507
Co       -0.19980692      1.28670014      1.80396114
Co        1.58009568      1.49193703      1.81222442
Co       -0.97827040     -0.87188015      2.00583053
Co       -1.46429359     -1.91125890     -1.02712027
Co        1.48718736      1.79825848      0.84200434
Co        2.31977414     -0.59773157      0.30465681
Co       -2.05226560      0.05705097     -1.14381955
Co        1.07308235     -1.02735517      1.27143242
Co        0.12426120     -0.58503525      1.43509829
Co        1.08211313      1.50375880     -1.66942827
Co        0.33615997     -2.55651287     -0.43377333
Co       -0.48371236      2.10594770     -0.67406575
Co        0.84072837      1.61771158     -0.66579227
Co        1.69386246     -0.09903930     -2.00486528
Co       -0.68012677     -0.10588679     -2.26268122
Co        0.73560976     -1.06875770      2.08232818
Co       -0.58742847      0.01569596      1.71615169
Co       -0.22731079     -2.21200388      1.25822485
Co       -1.02563228      0.04791918     -1.26947630
Co        1.95799808      0.01575085      1.10390529
Co        0.16706099      0.43529883      1.51990679
Co        0.68952569      0.98426745      2.05952603
Co       -1.69954860      1.59609704      0.69980847
Co        0.76202666     -1.70338362     -0.60246265
Co       -0.03418469     -1.68070621      0.05489307
Co       -0.77182842      0.98982121     -2.17498092
Co        1.91304903      1.02114645      1.03007745
Co       -0.44049451     -2.51843171      0.34943181
Co       -1.14734928     -1.66761964      1.55135503
Co        1.94345671      1.33368002      0.19365357
Co        0.74437654      0.69745631     -1.16955901
Co        1.40477810     -0.52466832      0.48842600
Co       -1.49006400      0.48073017     -2.01263636
Co       -0.11417461     -0.56922145      2.39045222
Co        0.57660864     -1.95535636      1.60702856
Co       -0.72177060     -1.88355744     -1.64676470
Co       -0.07684942     -1.33336416     -0.94198943
Co       -1.24219538     -0.02175048      0.94603511
Co        0.61992085     -0.06606895      2.15450134
Co       -0.85397620     -1.35828033     -0.41988506
Co       -1.47862625      0.47252261     -0.50223552
Co       -1.35172627     -0.83470351      0.32110433
Co        0.10335726      1.67406105      0.02595329
Co        1.38160512      0.84999492     -0.50404438
Co        0.71953361     -0.01503352     -1.83315073
Co       -0.25315276     -1.26987041      1.82064382
Co       -1.08098766      0.82942807      2.13933041
Co       -2.14360596     -0.04068588      1.07653619
Co        1.89564757     -0.08142677     -0.25257420
Co        2.33455564      0.77444399     -0.66599191
Co        2.20024549     -0.87710421     -0.61038369
Co        0.23995976      0.52356529     -2.45792522
Co        1.64562810     -0.79540764     -1.43820112
Co        0.27381073     -0.00402590     -0.89407335
Co        0.09941052     -1.28120977     -1.90511134
Co       -1.60699439      0.92027948      1.26072247
Co        0.59152063      2.21272713      0.63581021
Co       -0.30526268      2.11774077      1.19623243
Co       -2.36552484      0.80914839      0.53567948
Co       -1.30921191      1.85749623     -1.04236548
Co       -0.65083905      1.70602762     -1.57846001
Co       -0.38132320      2.39390751      0.32217169
Co        1.33119893      2.17036933      0.05414703
Co        1.47663279     -0.58844099      1.85114859
Co       -0.18748324     -0.50076255     -1.54852922
Co       -0.79511457      1.49065245      0.55310154
Co        1.63572317     -1.60080115     -0.72330848
Co       -1.56073740      0.03857341      1.84372573
Co        0.03983640      0.04445547     -0.02943331
Co        1.04382832      1.00297441      1.15511263
Co       -0.85081379     -1.66264186      0.65800544
Co        0.73974697      1.77192158      1.60860261
Co       -0.56840240     -0.46189747     -0.73014409
Co       -0.43134177      0.77883432      0.17405263
Co       -2.48308534      0.60695487     -0.43562655
Co       -1.77685380      1.41732772     -0.17179318
Co        0.96300674     -0.03664877     -0.08742823
Co       -1.90357235     -1.36162802     -0.30561107
Co       -0.11775426      0.40310580     -1.61950663
Co       -1.27382581      2.04427948     -0.13772224
Co       -2.43112434     -0.41672103     -0.51424592
138
frame=3  max_jitter=0.1000A  shuffle=True  rotate=True
Co        1.52521071      0.07918591     -0.21517636
Co       -1.60625193     -1.47134814      1.13618042
Co        1.75461183      0.00378217      1.71536642
Co       -1.29709270      1.89086249      0.31987385
Co       -2.23751829      0.54278737     -0.01318275
Co        0.85162494      0.35558090      0.13048370
Co       -1.97370946     -0.54796085      1.14987065
Co        2.12228163      1.37767166     -0.37466278
Co       -1.33694303      0.80805347      0.12794822
Co       -1.34791018     -1.93581305      0.38455017
Co        0.51482189     -0.64094101     -1.35944150
Co        1.92212090      1.05256556      1.22840047
Co        1.97477523     -1.35689747     -0.55816198
Co        1.08864843      0.69172625      1.13246460
Co        1.96449367      0.60761660     -0.98716764
Co        1.47187876     -0.80775474      1.99995073
Co       -0.72868605     -2.10284369      1.19985743
Co       -1.54682955      1.66444881      1.16812366
Co        1.52638844     -0.14832951      0.66335981
Co       -1.80191681      0.02509797     -1.49973592
Co       -1.81725484     -0.81172357     -0.35822858
Co       -0.44789679     -0.52911176     -1.72431579
Co        0.03031096      1.76255160     -1.75387607
Co        0.91212260     -1.65188108      1.63376964
Co        1.12088193      0.12916927     -1.14162481
Co       -1.26765905     -0.98578738      0.58573939
Co        0.55336562     -2.37535429      0.14706672
Co       -1.05445563     -1.54193767     -1.18224024
Co        0.99801894     -0.14600076      2.37895379
Co       -0.38908330     -0.57534590      0.63436240
Co       -0.53228871      0.58494059      1.51239905
Co       -0.64770503      2.13601811      1.03884550
Co       -0.95279003      1.67206116     -1.59911548
Co       -0.73509829     -1.21495067      1.33802024
Co        0.35565597      1.46125693      2.12041290
Co       -0.29405503     -0.41440866      1.63263086
Co        0.32493362     -0.91076257     -2.31338175
Co        0.02801823      0.03951277     -2.49861260
Co        0.74322938      1.14264242     -1.30138211
Co        2.08918521     -1.10105217     -1.39831879
Co       -1.08722103     -0.02152914     -2.22811956
Co        0.78837671     -0.32136894      1.32414571
Co       -2.43915034     -0.23508972     -0.69782569
Co        1.77297224      1.69434952      0.66865815
Co       -2.07151981     -1.33224678      0.47511248
Co       -0.52632885     -2.51008276      0.40542918
Co        0.11861114      2.16761030      1.33474334
Co        0.22614325     -1.12473395      1.17810914
Co       -0.54228130      2.39896104     -0.11985019
Co        1.25764849     -0.84558858     -0.04250530
Co       -1.46057096      0.84567088     -1.77604813
Co       -0.29237829     -1.08437661     -1.03674870
Co       -0.59759699     -0.73100828     -2.55441713
Co        0.45014458     -1.64144843     -1.69070382
Co        0.66375389     -2.25603661     -0.79443909
Co        0.65318795      2.13000672     -1.14050425
Co        0.64809393     -1.28077239     -0.68207602
Co        0.07802219      0.03889156      0.02129221
Co       -0.56313604      0.79581836     -2.09463813
Co       -2.21987890      0.79663171     -1.05493830
Co       -0.10349255     -0.89371695     -0.20964406
Co        1.35167627     -1.92548992     -0.13706958
Co       -1.02523876     -2.29165810     -0.61043644
Co       -0.45624856      1.48206744      1.77808095
Co        1.29795262      1.82457769     -0.21848814
Co       -0.61723866      1.50841231     -0.32886003
Co        0.44021988      2.36658611     -0.26833428
Co       -0.09710155     -0.13930103      2.50477527
Co        1.73002146     -0.10724065     -1.69915884
Co        1.14311722     -1.07571631      1.00001333
Co       -1.97456602     -0.91063611     -1.12993166
Co        0.43966718      1.45258583     -0.40111689
Co       -1.11626845     -0.23478295      1.27454950
Co        1.24360328     -2.03280609      0.74077918
Co        0.43251389     -0.88977796      2.18735952
Co       -0.91378851     -0.07505801      2.22094731
Co       -0.82274543      1.32598799      0.70921193
Co        0.75861156     -0.31374677     -0.46551299
Co       -1.80862845      0.18970702      1.73590312
Co       -0.34608892      0.79676086      2.46468481
Co        0.15646646     -2.06707402      0.95250895
Co        1.05439263      1.72290342     -1.95767988
Co       -0.33967361     -1.33867337     -2.03208501
Co       -0.90337782      0.35636626     -1.40855222
Co        0.11141766      0.33141496     -1.53708640
Co        1.14143846      0.77273386      2.11811673
Co        2.13940523     -0.70220201      1.11564562
Co       -1.33116606     -0.95357359     -1.89087407
Co        2.31472578     -0.60187164      0.10900557
Co        0.14352692      1.23799208      1.16710925
Co       -1.18676893      1.00282900     -0.94872551
Co       -0.04331908      1.87696555      0.40664941
Co       -0.19546872      2.03731618     -0.92377494
Co        0.79872883      1.30614931      0.32495085
Co        0.87339418     -0.04292259     -2.17392222
Co        1.13064161      0.87536509     -0.40977678
Co        0.97937533      2.28174421      0.52557715
Co       -1.52635058      0.74956887      1.13781958
Co       -1.58477874     -0.03050586      0.42696985
Co       -0.46085445     -0.84613165      2.29978721
Co       -1.09013752     -0.66069466     -1.11027792
Co        1.98096152     -1.54484715      0.54202036
Co        0.27327348      0.38252374      1.90681276
Co        0.37105762      0.60972266     -0.71055026
Co       -1.17672843      1.95502350     -0.61210667
Co       -0.28207203      1.09782671     -1.04409857
Co       -0.13886844     -0.24466647     -0.84310727
Co       -2.05210889      1.50709793     -0.34766296
Co       -0.78713292     -0.35276968     -0.12489991
Co        2.36040929      0.47582195     -0.02100380
Co        0.60984900     -0.62281967      0.46612464
Co        0.65452623     -1.53688015      0.39473410
Co       -1.20864726      0.94732524      2.03726150
Co       -2.33815878      0.35076478      0.92060794
Co       -2.39716221     -0.30139022      0.18270734
Co        1.51406419      0.81521344     -1.77838871
Co       -0.60022035      0.58893196     -0.36136555
Co       -0.25548166     -2.03148640     -1.25053651
Co        1.21687716     -0.86560739     -1.82231680
Co       -0.01669513     -1.88109471     -0.36318227
Co        1.35901981     -0.73721790     -1.01032608
Co       -1.40679339     -0.83364156      1.99665283
Co       -0.80478949      0.36312424      0.53455722
Co       -0.82887862     -1.30825782     -0.42194627
Co       -0.42969642     -1.57399251      0.55285923
Co        2.33855919     -0.41774045     -0.73974217
Co        1.48371838      1.48777456     -1.11648139
Co       -1.68265755     -1.59747641     -0.43258971
Co        0.10478523      0.86010886      0.29710890
Co        0.21315878      0.24274606      0.96473015
Co        2.39847252      0.25456221      0.81650172
Co        1.62808172      0.72250919      0.33850089
Co        1.33302611     -1.61740663     -1.24320599
Co       -2.06947631      1.22466483      0.67974869
Co        0.43027912      0.88024661     -2.24901722
Co       -0.09478615     -1.63566635      1.90160442
Co        1.12193330      1.64634023      1.41088301
Co       -1.46061245      0.11096144     -0.67300222
138
frame=4  max_jitter=0.1000A  shuffle=True  rotate=True
Co        0.27884526      0.91723660      1.38549269
Co       -1.02060138     -1.40212522     -1.74430196
Co        1.02192790      2.26280705      0.34054910
Co        1.47486218     -0.47545347      1.59238723
Co        1.62753766      1.55491012      0.02505314
Co       -0.59897407     -0.57743546     -2.13851429
Co        0.06585792     -0.08793975      0.12912077
Co        0.19780119     -0.48807433     -0.59138269
Co       -1.52608587      0.33721839      0.28152201
Co        0.88949284      1.63204250     -1.45826259
Co       -0.10205297     -2.33951913     -0.56725813
Co       -1.97967307     -0.00283564      1.68503549
Co        1.42535764     -0.20051804      0.72986041
Co       -1.32109249      0.86565712      2.02163478
Co       -2.27723141      0.71981417     -0.89801319
Co       -2.40191827      0.74321993      0.22300332
Co        0.70265616     -1.50235747      0.17869015
Co       -0.24160426     -1.88511515      0.10687060
Co       -0.20509183      1.51514043      0.64514194
Co       -0.47221530      2.48622491     -0.29393507
Co        0.58163269      1.05518953     -2.14592642
Co       -0.07876797      1.70261408     -1.83961907
Co       -1.01342780      1.03869503      0.60035254
Co       -0.47238038      0.76498044      2.29775061
Co       -0.79072330     -1.52922804      1.39287651
Co        0.36714506     -2.02624189     -1.30332175
Co        1.32824433     -0.89526691     -1.89065101
Co        0.84209978      0.19325993     -0.38731607
Co       -1.63692971      0.55836736     -1.55993232
Co        0.10241674     -0.72311822      1.81817504
Co       -0.75292281     -0.69784346      1.41796322
Co       -1.53698523     -0.48282261      0.93870901
Co        1.52567106      0.41781084      2.04016219
Co       -0.04857241      2.47955973      0.51871930
Co        2.27140969     -0.04682683     -0.70430895
Co       -0.25019909     -1.00490338      0.14595410
Co       -0.64009450     -0.29705023     -0.52953844
Co        0.49097900      1.90651256      1.22997672
Co       -0.19587458     -1.41704445     -1.92349706
Co        1.35480247     -1.55453180     -1.20032522
Co       -1.53496748      0.06251610     -0.73809993
Co        0.08107930     -1.77326654      1.90430416
Co        0.86580987      1.22775181      0.55485516
Co       -0.46465289      1.94541301      1.35855576
Co       -0.35555004     -0.87270390     -1.32988470
Co        0.16772346      0.87715980     -0.03748898
Co       -0.61720631     -1.87786897     -1.22466368
Co       -0.38548131      1.19655171     -2.57803895
Co        2.19606426      0.91781381     -0.25111991
Co       -1.38830976     -0.32609347     -1.94917970
Co        0.15877488     -1.47645583     -0.54559924
Co        2.05059085      0.24729618      1.33481247
Co        0.74133247      0.28354907      0.52931733
Co        1.56012860     -1.07442794      0.28183640
Co        1.62448486     -0.21840480     -0.24833937
Co        0.92403418     -0.46688244      2.36302103
Co        1.36173363      0.75164142      1.20016823
Co       -0.29064307      0.24939615      1.62233200
Co        0.38828458     -0.70406838     -2.20795114
Co       -0.26384319     -2.35594655      1.11430132
Co       -0.91648716      1.30015406     -1.84383257
Co       -0.16692175      0.74965695     -1.60407423
Co       -1.85207882     -1.45354470      1.09875221
Co       -1.62503760     -1.53423918     -0.04995457
Co        1.81300675     -1.52626043     -0.37016958
Co       -2.45785924     -0.10236342      0.86193751
Co       -0.86213830     -0.30470641      0.54790983
Co        1.89464836      0.09125414     -1.57076659
Co       -1.42542101     -0.71836701     -0.13521144
Co       -0.71718304      1.85468963     -1.13209869
Co       -1.38793700      2.11231693     -0.38243034
Co       -1.35152143      1.69777622      1.33790537
Co        0.65301452     -1.14385699     -1.40773730
Co        2.30007132      0.73581778     -1.17404573
Co        0.47322365      0.45784740      2.17267595
Co       -2.20236195     -1.00418162     -0.69778538
Co       -0.05914581     -0.21042153      2.45873540
Co        0.95568048      0.15658232     -2.03732655
Co        1.42205374     -1.97033888      0.50618162
Co        0.70364659     -0.06878486      1.46775255
Co        2.41361382     -0.73059791     -0.18845633
Co       -0.03699127      0.28030560     -0.81729939
Co       -0.11464404     -1.25846241      0.99638362
Co        0.77043512     -1.58259544     -2.22100186
Co       -1.16266747     -2.16320960      0.57355643
Co       -1.36998987     -0.77812982     -0.95539901
Co        0.46615770     -2.37826010      0.32011407
Co        0.65695418     -0.49968239      0.21321491
Co        1.15866590     -0.26376218     -1.15884296
Co       -2.27400823     -0.20485266     -0.20905831
Co       -1.46821172      1.12111440     -0.18564777
Co       -0.58275512      1.39429775     -0.09575580
Co        1.76314446      1.44970784     -0.82537451
Co        1.53374201      0.50322924     -0.82703201
Co        1.47164020      1.78273066      1.05801138
Co       -0.79734790      0.55552171     -0.17167704
Co        0.89342083     -1.28912852      2.01211257
Co       -0.63433634      1.03275631      1.59046087
Co       -1.00525966     -1.30258358      0.63132578
Co        0.67296759      0.71139849     -1.22947668
Co        0.95332378      1.22131513     -0.55844682
Co        0.09756846      1.30645563     -0.98628280
Co       -0.67758420     -1.11141646      2.16910918
Co        1.90030804     -0.88503100     -0.91467745
Co       -0.91461339     -1.38647353     -0.42298177
Co        0.78236008     -1.94085626      1.19176644
Co        0.25403179      1.89577583     -0.09687536
Co       -1.75078807      1.53431205     -1.23490663
Co       -2.22253751     -0.18762582     -1.28517067
Co        2.26000112     -0.75030632      0.82459824
Co        1.07682835     -1.03402996     -0.54459198
Co       -0.91935681      0.80938245     -0.99540362
Co        0.93850217     -2.02452202     -0.44850645
Co        0.75898822     -0.93319776      1.05234925
Co        1.63309111     -1.53642867      1.22074546
Co        1.03283378      1.37642525      1.88329970
Co        1.43296314      0.65391078      0.11169086
Co       -1.59922498     -1.64488280     -1.05809647
Co       -0.87539332      0.40005875     -2.33519413
Co       -1.08408868      0.36204345      1.11716144
Co        2.33148541      0.15669661      0.27751135
Co       -1.55714844     -0.90330926      1.85427630
Co        0.08807342     -0.19515494     -1.58815599
Co        0.11717001      1.47372951      2.05187357
Co       -1.90043983      0.72267062      1.17971877
Co        1.16808379      2.17140206     -0.56836926
Co       -0.25339775      0.57435049      0.71501490
Co       -0.97802096     -0.15397260      2.14942837
Co        0.11941742     -0.44602758      0.93674728
Co        0.16809928      2.17739958     -0.94593682
Co        0.15158808      0.15799317     -2.49202634
Co       -1.07694663     -2.21167493     -0.39288363
Co        2.17624003      1.04652617      0.70643392
Co       -0.80647059     -0.02671702     -1.34409537
Co       -2.24195829     -1.02784200      0.45280519
Co       -0.94792287      2.00916065      0.64492113
Co        1.49889155      0.87374963     -1.70881469
Co       -1.90564283      1.71268572      0.52921646
138
frame=5  max_jitter=0.1000A  shuffle=True  rotate=True
Co       -0.94254477      1.30304505     -0.46770199
Co        0.47531420      2.17827744      0.52525815
Co        1.48667119     -0.53063984      0.63751098
Co        0.53323069      0.46012187      0.68626326
Co        0.19393487      1.43532489      0.83037789
Co       -0.57160499      1.71806291     -1.67622397
Co        0.26293583      0.64364539      1.52759869
Co        0.12925169     -1.53652828     -1.78368151
Co        0.70036129      0.09755325      2.21719318
Co       -0.76723751     -1.06177888     -2.05063381
Co        1.02010351      0.94340010      1.20071684
Co        0.37855839      2.07786896     -1.35247377
Co       -1.18407845      1.68523488      1.46322810
Co       -0.92475736      0.92712487     -1.38981560
Co        0.34312310     -2.44883958     -0.01304581
Co        1.16807187     -2.12337367      0.13646207
Co        2.27510058      0.58490076     -0.62425779
Co        0.34631732     -0.85451594     -0.30672696
Co        0.99753416     -0.95811312      1.37544837
Co       -0.70785173     -1.91151557     -1.50882124
Co       -0.88781793     -1.29625941     -0.16063580
Co        1.60590970      0.54108098      1.97979752
Co       -0.41259992      0.07271226      0.81647382
Co       -1.19287473     -1.49631158      1.73328976
Co        1.45905849     -0.28725190     -1.82543494
Co       -1.51672994     -0.42628768     -0.37660382
Co       -0.59833841      0.14798522      1.79264813
Co       -0.42769020      0.51675188     -0.55521785
Co       -1.32466963     -0.75111087      0.46246797
Co       -0.19795957      2.23124085      1.17002736
Co        0.74326769      1.57959503     -0.68138261
Co       -1.37301719     -2.08236844      0.14069962
Co        1.88595960     -0.15537450     -0.25251306
Co       -0.45511944      2.01757118     -0.79608118
Co       -0.48428700      0.84885370      0.30305284
Co        0.78138103      1.22351277      2.17625858
Co        0.66873162     -1.69582791     -0.52736802
Co        0.98641941      0.01445285     -0.02135377
Co       -0.10226656      0.04964409      0.12351193
Co       -0.36398411      2.37185090      0.14596179
Co       -2.03621489     -0.08517456     -1.23699755
Co        1.31358726     -0.82838406     -0.40890100
Co       -1.10224280      0.00540004     -1.19014823
Co       -1.52321806      0.43126937     -0.46819807
Co       -0.51597365     -2.48439254      0.57766076
Co        1.44098747      0.52836257      0.48508264
Co        1.23073140     -0.05432647     -0.97508739
Co       -2.08414496     -0.93917199     -1.11012545
Co        1.56437509     -0.49918835      1.94349776
Co        0.41620322      2.41303065     -0.50169155
Co        0.81084135     -0.20390415     -2.63686725
Co       -0.46886773     -0.51311733     -0.48160975
Co       -0.18679459     -0.38445748      2.55795890
Co       -0.29861853     -0.65614670     -1.43965169
Co        1.67993719     -1.75171073     -0.50711677
Co       -1.31094764      2.06284725     -0.07444565
Co       -0.68322682     -0.79261051      1.22956343
Co       -0.58236083     -2.27041806     -0.49367854
Co       -1.82956562      0.01851512      0.24093567
Co        2.35022230     -0.57394400      0.50225146
Co       -1.92683325      1.40786995     -0.17870130
Co        0.11194408      1.62401133     -0.01899222
Co       -2.27988607      0.19095784      1.12755190
Co        0.53413289     -1.65885918      1.75763212
Co        2.70176586     -0.18095118     -0.32068684
Co       -2.55345982     -0.40992228     -0.25409167
Co        1.01480852     -1.04958246     -2.01860869
Co        0.00330925     -0.77937142     -2.39150330
Co       -1.29708544      0.82110856      0.40916304
Co        0.34332619      0.00301719     -0.82715025
Co       -1.91601193      0.92277091     -1.20391936
Co        1.99230736     -0.97123605      1.22476385
Co       -0.12917091     -1.54304920      0.15896185
Co        1.08696951      1.45735943     -1.67830533
Co       -0.87429890     -1.62651790      0.73099071
Co        0.50628066     -0.08108496     -1.82187640
Co        0.05561734      0.37033999     -2.36993204
Co       -1.11854598     -1.13948991     -1.14763933
Co        2.43012747      0.35334398      0.46189525
Co        1.75689105     -1.46235758      0.40628295
Co       -1.94858328     -1.25151933     -0.07862438
Co       -1.76042247     -0.67458095      1.43598511
Co       -1.04239209      0.00416698      0.11373099
Co        1.47817609      1.78473482      0.77031565
Co        1.67998735      1.42387362     -0.77456472
Co       -0.20003445      0.66137251      2.45115273
Co        1.24674881      2.27265800     -1.05048293
Co       -1.45075661      1.86261584     -1.13923244
Co        0.52707518     -0.37737907      0.75322876
Co        0.14957431      1.08032644     -1.94456603
Co       -1.52723711      0.34454982     -1.92315951
Co        0.62219114      1.85777078      1.51783393
Co        1.60982018     -0.90857454     -1.28878392
Co        2.27400757     -0.20393751     -1.04590370
Co        1.24259418      1.98670975     -0.07178163
Co        0.95103788      0.56333408     -2.10821435
Co       -0.53598845     -0.75910610      0.32031886
Co        0.75460358     -1.41698395      0.40018590
Co       -1.13197374     -0.66505090      2.15136454
Co        1.22994737      0.75208282     -0.42010403
Co        1.00489923     -0.04753413      1.27836781
Co        1.40338860     -1.73379147      1.14469977
Co       -2.28474321     -0.80207703      0.66578807
Co       -1.56151245     -0.61527718     -1.76147104
Co       -1.73564081      1.78681622      0.70776870
Co       -1.61905765      0.95072066      1.34047313
Co       -0.44655747     -1.96623436      1.49736168
Co       -1.37016682      0.19337320      1.00586104
Co       -1.07218507      0.90239552      2.11642386
Co       -0.17650475     -1.42986982     -0.82071045
Co        1.99116995      0.00503900      1.18984491
Co       -0.02813979     -1.32348264      1.09748454
Co        0.96272874      1.21080805      0.26770709
Co       -0.66570536      0.82646945      1.09267823
Co       -0.21757220     -1.23549256      1.96500166
Co        2.00418627      0.99534273      1.16013160
Co       -0.15094753      1.26324143     -1.04284349
Co        0.61584873     -1.00399807     -1.19624812
Co        1.75851664      0.75437067     -1.46708997
Co        0.46310565      0.65924888     -0.43297846
Co       -0.63475306      0.90064992     -2.30706545
Co       -0.72340953      1.61071524      0.45791110
Co        1.90738838      1.28022442      0.07599944
Co        0.20546711     -0.40166710      1.69433245
Co       -0.22498862      1.51411046      1.83967332
Co        1.03734639     -1.81718817     -1.46546182
Co        0.59908680     -0.95461747      2.29088341
Co       -0.70648553     -0.10439776     -2.11912144
Co        2.24994649     -0.98324330     -0.37934145
Co       -1.81419651     -1.49634030      0.91023088
Co        0.32089894     -2.04818901      0.89878845
Co       -1.52725718     -1.86247591     -0.81242376
Co        0.25181404     -2.26256613     -1.07789288
Co       -1.66838783      0.08568457      1.85978538
Co       -0.27636267      0.37653439     -1.51657633
Co       -2.34907790      0.83914774      0.48466483
Co        0.61502439      0.73683048     -1.15418739
Co       -2.52964871      0.60683344     -0.36755792
138
frame=6  max_jitter=0.1000A  shuffle=True  rotate=True
Co       -0.17515762      0.60596282      2.45440320
Co        1.44700131      1.99498072      0.41743713
Co       -1.58681978     -1.08970461      1.06953601
Co        1.71024781     -1.69255954      0.38630726
Co        0.12087411     -0.53968417      1.41531358
Co        2.13101131      0.28343100     -1.17764960
Co       -0.54112558     -0.32631960      2.14391053
Co       -1.39097755      1.65463097     -1.40630514
Co        1.46210844     -1.06885706     -1.53900376
Co       -0.06531190      0.88993850      0.33180865
Co       -0.07769185      2.02625693      1.38312009
Co        0.95677359      1.57338607      1.21990345
Co       -0.40598981      0.25093192     -2.56041562
Co       -1.51315375     -0.16501678     -0.47411947
Co       -2.23278719      1.14590494     -0.11431427
Co        0.00787191     -1.62383919      0.31434871
Co       -2.29046623      0.05574169      0.25998477
Co        1.34353871      0.01785490      2.01903794
Co        2.24524782     -1.22918280      0.97904330
Co        0.69648084      2.08610077     -0.20459614
Co        0.58992853     -1.89093670      1.54969557
Co       -1.68605701      1.89699528     -0.46510182
Co        0.19855139      0.73323751     -0.73381002
Co        0.32602259     -0.33114801     -1.56500449
Co        0.73173267     -0.04054472     -0.66305577
Co       -1.50197882     -0.44931949      0.46483448
Co       -0.08673845      0.60695900     -1.52465828
Co       -1.50872030     -1.10648792     -0.22697795
Co        0.99995272      1.92404294     -1.28988201
Co        0.53361725      1.51589992      0.34294073
Co        0.42867332     -0.27556518      2.47540434
Co       -0.09657393      2.47273442     -0.14910264
Co        1.88077631      1.36854774      1.11898568
Co       -0.94879908     -1.57481617     -1.43496421
Co       -1.87562737     -0.24638552     -1.41640428
Co        0.19063159      1.49867256     -1.24329035
Co       -0.97355912      1.90462261      1.18169290
Co       -1.12126799      2.27577268      0.26197280
Co        1.53345233      0.07286390      0.31547084
Co        0.70555959     -1.14806280      0.97148846
Co       -0.26075352      1.76458840      0.47556654
Co        1.81709629      0.28686801      1.37658490
Co       -0.73084589      0.45639841     -0.36288064
Co        0.15419928     -2.52512633     -0.00405777
Co        2.26364603     -0.80098806     -0.98875014
Co        0.81937361      1.25444074     -0.52625804
Co       -1.36353034     -2.01806536     -0.51134462
Co       -1.13423795      0.17783696     -1.16263384
Co        0.99392770     -0.31221040      1.23720551
Co        0.19214076      1.03970696      1.13947110
Co       -0.23083138     -1.10598359     -1.20433376
Co        1.56374634      1.20521502     -1.16331769
Co        0.74468786      0.67554165     -1.23345642
Co       -0.76784911      1.00334385      0.83921613
Co       -2.38018557     -0.67939500     -0.53193414
Co       -0.37435301     -1.32238633     -2.10723102
Co        0.47187367      0.42431180     -2.34128585
Co        1.68104796      1.72806960     -0.47053342
Co       -1.13254156     -0.74308601     -1.09327783
Co       -0.29293248     -0.06851683     -0.95964611
Co        0.91112782     -1.38734084     -0.11110687
Co        0.68359113     -0.39088958      0.18408032
Co       -0.74495257     -1.32827006     -0.54146317
Co        2.25765947     -1.07032403      0.02241725
Co       -1.14340283      0.46539856      2.11875520
Co        1.91944854     -0.64324553      1.53788263
Co        2.24203408     -0.26165821      0.72180092
Co        1.55823694     -0.89072295      0.48988260
Co        0.87487644     -1.94741137     -1.34441625
Co        0.95199085     -1.02229456      1.82156185
Co       -2.39620351      0.41827990     -0.79484488
Co        1.45286399      1.03025174      0.20295570
Co       -0.38821902     -1.98751305      1.94325441
Co        0.80694903      0.63499126      2.59023824
Co       -0.82696788     -2.23406191      0.15811325
Co       -0.75848498     -0.47110856     -0.13261616
Co       -0.72834050      2.11649114     -0.68312664
Co       -0.88531805     -1.19343489      0.47784968
Co        1.20927090      0.93444716      1.81739209
Co        0.44891116      1.38397369      2.16080395
Co       -1.57861015     -0.35666235      1.94712845
Co       -1.54790044      0.99381855     -0.71203990
Co        2.27223153     -0.12349153     -0.25365174
Co       -0.82894165     -0.52760569      1.28761988
Co       -0.68528406      0.11055070      0.62279735
Co        0.00112452      0.07504600      0.04660886
Co        0.99942149      0.72521226      0.99009226
Co        0.52182760     -1.21389407     -1.86741370
Co       -0.37832133      0.36936073      1.58510506
Co       -0.56955138      1.84266957     -1.68093129
Co        0.84335403     -1.03319185     -1.03192806
Co        2.29045557      0.93667681     -0.42048313
Co        0.19763403      0.24118935      0.82256687
Co        2.28207276      0.65390012      0.42620060
Co        0.87406743      1.22436101     -1.98327156
Co       -2.30910838     -0.33193498      1.06369690
Co       -1.74078585     -1.76589743      0.33725310
Co        0.15842882      2.24818941     -0.98731008
Co       -1.61356495      1.12942053      1.53777063
Co       -0.11684614     -2.25504361      0.89032609
Co       -0.59013049      1.25609673     -1.01420580
Co       -1.07559478     -1.98663733      1.04311073
Co        0.17373276     -1.84910498     -0.62233133
Co       -1.45304884      0.54451850      0.18844172
Co       -1.62574346      1.52418079      0.62196067
Co       -0.98531254      1.43270044     -0.08977417
Co        0.50696516      0.36116412      1.73326533
Co       -1.50017153      0.29382434      1.17119446
Co        0.06049222     -1.92162170     -1.46347673
Co       -1.77438919     -1.32132920     -1.08769561
Co       -1.40884455      0.11432023     -2.12428493
Co        1.40365253     -0.58092354     -0.45603486
Co       -0.02905683     -1.23334513      2.14701288
Co        1.21325646     -0.44241779     -2.15638546
Co        1.49033084     -1.53260920      1.20748911
Co        0.76667328     -2.12485238      0.68366054
Co       -0.07936063      1.22261906     -2.26470473
Co        1.46668673      0.43079871     -0.62336786
Co        1.53380707      0.53437627     -1.98157958
Co       -0.64510872      1.35608918      1.88089634
Co       -0.06576621      1.54804000     -0.45181596
Co       -2.21550674     -0.99872451      0.29611753
Co       -0.31267137     -1.32063539      1.21735914
Co        1.05699394     -2.29648081     -0.32990993
Co        1.28393659     -0.33078173     -1.25862719
Co        0.69664347      0.45044113      0.12667590
Co        0.06561808     -0.54880806     -2.50258234
Co        0.53878912      2.29440521      0.59014298
Co       -2.21484440      0.65567245      0.91024052
Co       -1.02530713     -1.17479004      1.89494235
Co        0.13953461     -0.87984082     -0.40480355
Co       -0.61940127     -2.29850482     -0.75719780
Co       -0.10617494     -0.60348796      0.51585450
Co       -1.82947055      0.69936053     -1.57590224
Co        1.60550729     -1.52385266     -0.63773672
Co       -1.29552906     -0.96397397     -1.93659956
Co       -0.55282404     -0.33079644     -1.80898825
Co       -0.95928959      1.07645487     -1.98873409
138
frame=7  max_jitter=0.1000A  shuffle=True  rotate=True
Co        0.70855341      2.04615067      1.34816288
Co       -0.14409315      1.62629408      1.94674841
Co        0.79267697     -0.94223351     -2.11152580
Co       -1.20848810      0.81725090     -1.13393321
Co        2.15568090      0.92396553     -0.94118808
Co       -1.26195882      1.11616220      0.86506189
Co        2.52693733      0.31319085      0.59077478
Co        0.47828217      1.09128996      1.57980865
Co        1.21741769      0.62182056     -0.94957182
Co       -2.11372618     -1.16886097     -0.65327081
Co        0.49767676     -0.09292659     -2.52283065
Co       -0.17589954     -0.59884382     -0.82095841
Co        1.11946150     -1.68416713     -1.42815112
Co       -2.06433836     -0.88384746      0.83576193
Co       -0.50271150     -2.24807043      1.15296355
Co       -0.89167218      0.94696325     -2.02085787
Co        0.27234682     -1.58533232      1.62763433
Co       -0.54907003     -1.05547012     -1.44270466
Co        1.99484541      1.53709763     -0.24873204
Co       -0.14828727     -1.02589940      0.12280975
Co       -1.25627739     -1.52126540      1.13701777
Co        1.62585995     -0.92253321     -1.58481381
Co       -1.53845492     -0.85224466      1.77610143
Co       -0.35671505      1.94083831      1.06106984
Co       -0.54139476      0.07999505     -2.21191258
Co       -1.18828412     -0.53790960      0.84963077
Co       -1.51369053      0.33162744     -2.02697798
Co       -0.69423426     -2.10949961     -1.44223536
Co        0.02102874      0.18844529      1.58085665
Co       -1.56926428      0.86839501      1.70558474
Co       -1.68784645     -0.71723369      0.02785310
Co       -0.27357578     -1.92892530      0.29928019
Co        2.23213048     -0.84721467     -0.75544581
Co       -0.89631387      0.35496719      1.34279934
Co        2.15535080     -0.64803797      0.23447550
Co        1.64935930      0.86164640     -1.72289164
Co        1.63666884     -0.34992506     -0.48662053
Co       -1.86590555      1.34945900     -0.81462465
Co        1.27339525     -0.80673986      1.12227637
Co        0.60514518     -0.41121516      0.56730272
Co        2.17216140      1.11283529      0.82220824
Co       -0.40301713      2.45447224      0.14579793
Co       -1.16304141     -0.80104397     -0.63590711
Co        0.96745439      0.01165119      1.28921382
Co       -0.42958037      2.18863817     -0.89204224
Co       -0.69361930     -1.43217640      1.92663225
Co       -1.08318283      1.88735487     -0.45292150
Co       -0.65909052     -0.49642879      1.70077952
Co        0.34083725      0.51834472      0.65950963
Co       -1.72246974     -0.52925869     -1.30828911
Co       -2.00400545      1.62056853      1.10452476
Co        0.84217871     -1.16516776      2.14642780
Co        1.29979549     -1.18592795     -0.82695014
Co       -0.94813445     -0.23553116     -1.41674784
Co        0.68039056     -0.54133464     -0.38704538
Co       -0.18142921      1.58381020     -1.71216068
Co        0.38242090      1.36692331      0.66672731
Co        0.21275157      1.79195318     -0.26295759
Co       -0.99256910     -1.33428573      0.19490616
Co       -1.85594086     -0.16609321      1.33452367
Co       -0.53761329      0.60756275      0.41682349
Co       -1.38223572     -1.51407045     -1.46613179
Co       -0.00556392     -0.08332531      0.00492149
Co       -2.11883220      0.55155085     -0.18742478
Co        0.41645733     -2.16776578     -0.90892372
Co       -0.48475330      1.29141522     -0.66784517
Co        0.73107624      1.50709282     -1.90688465
Co        0.36027677     -1.19565003     -1.11793797
Co       -0.88679057     -0.37841219     -0.02373728
Co       -0.51188799      0.40370089     -0.56349395
Co        0.60036167      2.41212828      0.45162906
Co        1.61325735     -0.27027513      2.04084559
Co        1.04890993     -0.35648234     -1.14710748
Co       -1.15147234      2.08853194      0.68307945
Co        1.21927642      0.81683946      0.75254323
Co       -1.35292903     -0.02272012      2.03147294
Co       -1.56780854      0.04378201     -0.63678338
Co       -0.55082364     -2.47991393     -0.50998744
Co        0.05247333      0.94969319     -0.13549565
Co       -1.62069622      0.25842233      0.46883649
Co       -0.33346513      1.06614523      1.07518250
Co       -2.12412194      0.53749697     -1.09480830
Co       -1.86607435      1.46493554      0.13407986
Co        1.92547726     -0.05819187     -1.29581786
Co        1.25843546     -0.92058836      0.27076546
Co       -0.08334774     -1.07228244      2.25894776
Co       -2.11776433      0.67509081      0.86571620
Co       -0.23956443      0.59879946     -1.39184007
Co       -1.24228945     -1.82938155     -0.55607681
Co        1.31139695     -2.01990236      0.33076509
Co       -1.33062098      1.02365093     -0.27285827
Co        1.88534138      0.46466886      1.32096769
Co       -2.34320833     -0.36666095     -0.51341341
Co       -1.07734221      1.55983556      1.52815972
Co        1.19256427     -1.70502127      1.40101763
Co        1.52103327     -0.08907410      0.61597740
Co        1.98772579     -1.52110097      0.74226253
Co        0.50243528     -1.47727674     -0.16419182
Co        0.56107393      1.10113521     -1.01475137
Co        1.20463539     -2.15861299     -0.59415815
Co        0.36655678      2.72048105     -0.45386984
Co        1.34767974      1.88444040      0.56702098
Co        0.33484217      0.14967346     -0.78476158
Co        1.83638356      0.53357778     -0.06297196
Co        2.15381077     -0.52363908      1.29191945
Co       -0.46613269      1.42494824      0.17606900
Co        1.42225807     -0.00329624     -2.17136078
Co        2.01588413     -1.55260877     -0.07579828
Co        1.05077072      1.29093922     -0.12749598
Co       -0.63066892      0.76377214      2.02881020
Co        0.87068068      0.24833362     -0.06493866
Co        1.05272439      2.18296205     -0.26194944
Co       -0.35675098     -1.20531478      1.00193485
Co        0.06776797      0.82914285     -2.22599119
Co       -1.80673249     -1.70034521      0.15150802
Co       -1.03059967     -2.24325833      0.35371870
Co        0.77331302      0.42926337     -1.73800796
Co        0.41432469     -2.37283725      0.87063078
Co        1.55456289      1.31731349      1.57916745
Co       -1.71949176      1.23759318     -1.76123524
Co       -1.13512863     -0.74178705     -2.03678681
Co        0.50657317     -1.32371908      0.76538042
Co        0.57342829      2.18594420     -1.07985064
Co       -2.38482243     -0.19145403      0.33681027
Co       -0.43990506     -1.47478286     -0.50352558
Co       -1.13513673      1.80274736     -1.36995005
Co        1.20542581      0.66740913      2.04346104
Co        1.44110486      1.50910084     -0.95543002
Co        0.31741505     -0.76156613      1.44921832
Co        2.54323050      0.00877612     -0.32474543
Co       -0.07169777     -0.78765933     -2.36781989
Co        0.12259757      0.78308459      2.34521328
Co       -0.37142571     -0.30602142      0.81182157
Co        0.49522905     -0.14343594      2.33403068
Co        0.21181939     -1.58541206     -1.95909309
Co       -0.35822839      0.06070651      2.41132875
Co        0.06142689     -0.28402477     -1.59240199
Co        0.51734773     -2.59159816     -0.00799710
138
frame=8  max_jitter=0.1000A  shuffle=True  rotate=True
Co        0.43411926      0.73101929      0.57590556
Co        0.68745520     -2.01626263     -1.23331074
Co        0.18691877      1.64001557     -0.88098607
Co       -1.91532546     -1.17649157      0.98392488
Co       -0.93600504      1.51056238      0.61975995
Co        0.99593358      2.12125263      0.64290318
Co        2.19286358      1.05224942     -0.04361295
Co       -0.96888130     -2.22878073     -0.48387151
Co        0.69539842      2.37521256     -0.31254891
Co       -0.32196569      0.11931812      1.85013721
Co       -0.56400298     -2.30180517      0.31894386
Co       -0.90708236      2.36010686      0.31218226
Co        0.87940017      0.17199325     -0.26815645
Co        0.70262600      1.51530909      0.07703134
Co       -1.16980173      0.99403283     -0.21905491
Co       -2.13076611      0.94502896     -1.58683282
Co        0.49621712     -0.30324249      2.42998787
Co        0.99112775      0.27898423      2.05821362
Co       -0.03841792      1.30816329      0.80396593
Co        1.74079800      0.41843113     -0.63143855
Co       -1.29839167     -1.91140283     -1.54269271
Co        0.83125578     -0.78156496     -2.29533627
Co        1.90928404      0.50391075     -1.61068602
Co       -0.59265564      1.20222140     -0.96821345
Co        0.19243681     -1.34802304     -1.86324607
Co        1.96398318      1.62673348      0.73901239
Co       -0.74517992      0.22086985     -0.49553802
Co       -0.44803625      0.31515462     -1.42316486
Co        2.43899823     -0.48126165      0.78280847
Co        2.23789455     -0.77318094     -0.09212856
Co        0.65332591     -0.63332164     -1.18959952
Co       -2.63747943     -0.58246563      0.78779702
Co        2.02554510     -1.41090385      0.84251028
Co        0.68877971     -1.24070930      0.94798881
Co        1.41417356     -0.52514671      1.15848112
Co       -1.39911551     -0.83041307     -0.10878893
Co       -0.93950576     -0.27870989      1.19129320
Co        1.39631127      0.84543884      0.25868090
Co       -0.89237679     -1.28116544     -1.02610030
Co       -1.07867101     -0.26596950      2.18038220
Co        0.06521166     -2.31788650     -0.32549945
Co       -1.52630310      0.20253320     -0.16802208
Co        0.20009555      0.71896532      2.39764900
Co       -1.33146845      1.42411784     -1.51039006
Co        1.98182784     -1.15847920     -0.93807725
Co       -2.28646226     -1.01320379      0.10820960
Co        1.28495128     -1.37807905     -1.66378053
Co        1.15919336      1.02076719     -1.59667269
Co        1.84076135     -1.81556297     -0.19862516
Co        1.26917440     -1.03622738      0.17258259
Co       -0.69025369     -1.27388180     -1.86558887
Co        1.77959905      0.98250151      1.62201615
Co       -1.95240138     -0.36153126      1.63269594
Co        0.86733005      1.31160012      1.96474693
Co       -0.34514369     -0.56829972     -1.43757843
Co        1.18950106      1.92711443     -1.18840272
Co       -1.04732696     -0.28637464     -1.07907481
Co       -0.33055732     -0.65661762     -0.44957093
Co       -0.43975343     -0.77019171      2.42146049
Co       -0.91312245     -1.12267767      0.68726313
Co        0.44393320     -2.09521586      1.38596168
Co       -1.83005518      1.36232953     -0.75488267
Co        1.10646841     -1.44106221     -0.62993745
Co       -1.05254609      1.98415740     -0.65035909
Co       -0.11289148     -1.64348655      0.88364572
Co        1.26381918     -1.80760881      0.68680021
Co       -1.68111719     -1.05304010     -1.60139291
Co       -0.99377263     -1.88521370      1.22442159
Co       -0.16136345      1.40651107      1.79105558
Co        2.24700011     -0.37451973     -0.96565406
Co       -0.17160968      2.49271049     -0.39929291
Co        2.18059211      0.58966075      0.74325649
Co       -1.71338970      1.82301445      0.05256717
Co        0.46225461      1.70421606     -1.75126955
Co        0.23531522      0.91368198     -0.35691765
Co       -0.45818077      0.21744548     -2.38950187
Co        0.96693635      1.05668411     -0.74548598
Co       -0.41063284      2.00089118     -1.46477676
Co       -1.33956023      0.55835403     -2.05465349
Co       -1.09121053     -0.35749560     -1.98062831
Co       -1.11798096      1.48942090      1.62220892
Co        0.54470029      0.84073254     -2.21707546
Co        0.19369596     -0.02568445     -0.97893611
Co        0.26169458      0.01400679     -1.82206467
Co        0.56411459     -0.76223498     -0.23703239
Co        1.28458186      0.44217034      1.03837438
Co       -1.36008329     -1.84540563      0.20857005
Co        2.47684681      0.16558391      0.01579822
Co        1.38694921     -0.49355965     -0.54967107
Co       -2.06238339     -0.52914492     -0.71437844
Co        0.02083254      2.37145374      0.41598736
Co       -1.32351922      0.48229224      0.62930020
Co        0.31981907     -2.36144660      0.45906244
Co       -0.31403377      1.15138953     -1.85135548
Co        0.64605338     -0.31255364      1.52628356
Co       -0.58642046      2.04633862      1.26095745
Co        1.05825701     -2.38665227     -0.18130871
Co       -0.89269995     -0.19404754      0.36521871
Co       -1.57857138      0.52940771      1.56925825
Co        0.42140226     -1.19876783      2.02744529
Co       -0.39050796     -2.09492736     -1.43816854
Co        1.41762336     -0.68988486      2.12412762
Co        0.48740584     -1.57160403      0.17063989
Co       -1.13052489     -1.05901354      1.65278119
Co       -0.28834706     -1.75191116      1.75412097
Co       -0.56993032      0.69479640      1.24284133
Co       -2.28182656      0.32311769      0.90741259
Co       -2.38913363     -0.16993467      0.02511351
Co       -1.79638062      1.22096556      0.94964512
Co       -0.00868296     -0.07431865      0.89595878
Co        0.14047720     -1.41238043     -0.76026440
Co        1.57512510      1.69042948     -0.17392271
Co       -0.07346770     -0.57218337     -2.29914815
Co       -2.26892928      0.32793373     -0.83977731
Co       -1.84200494     -1.50124420     -0.65824761
Co        0.32340221      0.86035569     -1.31493673
Co       -1.40267674      0.55814200     -1.07809808
Co        0.98834353      0.18868182     -1.25754215
Co        1.27056170      0.14174377     -2.25421464
Co        1.86233247      1.21277478     -0.97628187
Co       -0.49575315      0.80039817      0.28802558
Co        0.48942316      2.13454732      1.34843138
Co       -0.22350750     -0.87557524      1.33717041
Co        1.94029436     -0.00300884      1.53295499
Co        0.08208727      0.00638713      0.03367540
Co       -0.49722163     -1.47281176     -0.13241470
Co       -1.73590030     -0.50925062      0.62262975
Co       -1.80289768     -0.02116253     -1.59493694
Co        0.89632423      1.41523761      1.05015812
Co       -0.86643661      0.70452489      2.22672255
Co       -2.06077550      0.88290537      0.07339627
Co        1.56747230     -0.56419489     -1.49439245
Co        0.71726021     -0.34782960      0.48873188
Co        1.37969111     -1.50271084      1.47084504
Co       -0.45954971      1.67275193     -0.09009488
Co        1.72319087     -0.10829555      0.24976505
Co        0.27436278      0.72293535      1.47257958
Co       -0.06067734     -0.79471885      0.45960884
138
frame=9  max_jitter=0.1000A  shuffle=True  rotate=True
Co       -0.46642121     -0.93958151     -2.20272319
Co        0.83905850      0.16028776      0.65120648
Co        1.65562200      0.21089182     -0.84124889
Co        0.21488987      1.30467061      0.83434930
Co        0.72814021     -1.83419153      1.63820222
Co       -1.06333944     -2.48825269     -0.15840336
Co        0.80657592     -2.24530277     -0.05685426
Co        0.32430353      0.88498539      0.06152501
Co       -1.37864339     -0.10350736     -1.13008232
Co       -1.39915054      1.26365266     -1.48745404
Co        0.95038886      1.59879549      1.39056632
Co       -1.24937292     -0.90481077      0.28850084
Co        1.19885266     -0.69169189     -2.13972248
Co        1.33772541     -1.93241834     -0.66217933
Co        1.57091637      0.15919180      1.07383572
Co        0.87899798      2.35369334     -0.78099603
Co        2.43631718      0.34237456      0.77051064
Co        1.17794861      1.04438949     -0.39592388
Co        1.29632358      1.50490736     -1.26569601
Co       -0.24689685     -1.31130913     -0.85788127
Co       -1.99703749      1.27862664      0.30402130
Co       -2.13546591      0.56216441     -0.25249613
Co        1.54297187     -1.11719529      1.42249571
Co        0.39353682      1.50981070     -0.83614230
Co       -0.49143311      1.33472616     -0.76309726
Co        0.25143045      0.09581845     -1.60461008
Co       -0.15744421      0.39680089      2.43532463
Co       -2.24903453     -0.35823126     -1.77215184
Co        2.15578724     -0.47879064      1.09671626
Co        0.31445410     -0.36069215     -2.37171859
Co        1.61135245     -0.36047954      2.05708683
Co        0.25571864     -2.07875992      0.77903135
Co       -0.51139560      0.83719915     -0.02269445
Co        0.78880173      0.14890471     -0.32331698
Co       -1.51961619      0.24286488     -1.86730207
Co       -0.60589748     -2.13920384     -0.90656803
Co       -1.93980056     -1.17403122     -0.10443752
Co       -0.71182059     -0.15566101      0.33757600
Co        2.38417482     -0.46353229      0.09265213
Co        1.48607659      1.83162742      0.61271887
Co        0.66677004      2.29758555      1.01182877
Co       -1.26262795     -0.72674848     -1.87249489
Co        1.09218201      0.12696059     -2.10341569
Co       -0.78333825     -2.22555102      0.65316333
Co        0.88207668     -1.24688199     -0.80974074
Co       -1.63763162     -1.92097690      0.35043814
Co        0.03379055      1.85604696      1.77449524
Co       -2.08326410      0.45985456     -1.23845730
Co       -1.03630462      0.73735821      2.06960456
Co        1.88265090     -0.19310902     -1.76171843
Co       -0.96039104     -1.38862831     -1.47266426
Co        1.63485507      0.80559784     -1.57438624
Co       -0.80914005      1.70646359      1.67500474
Co        0.36397935     -0.97495073     -1.58361303
Co       -0.72934624     -0.59101680      1.18220237
Co       -2.48789160     -0.35159417      1.30247886
Co        1.04760636     -1.75635520     -1.69718716
Co       -1.06202762     -0.94225129     -0.54198085
Co        1.42401082     -0.65925967     -0.34017900
Co        1.33587824      0.71327886      1.89901984
Co       -1.62048313     -0.26223980     -0.20972215
Co        1.22167765      1.01262968      0.71154973
Co        1.65809180     -0.98311395     -1.18850525
Co       -1.44287877     -1.82325883     -0.75574202
Co       -0.34185226     -0.86071879     -0.07530762
Co        1.86856439      1.20579576      1.12208694
Co        1.32623740     -1.98736992      0.79545216
Co       -1.16962124      1.40421358     -0.03672847
Co       -1.85516142     -1.14968644     -1.18032908
Co       -0.62399817     -0.01611297     -0.57370533
Co        1.29126373     -1.43870589     -0.02701197
Co        0.89755771     -0.95479462      2.22310412
Co       -0.05576766     -2.52748498     -0.09438874
Co       -0.03038332      0.05518882      1.72024222
Co        1.54781701      0.35403216      0.11840182
Co       -0.33840987      0.91350487      1.60073815
Co       -0.87414682     -1.22261508      1.96900907
Co        0.70976494     -1.24009353      0.90915998
Co       -1.68680583     -0.73629006      1.63002233
Co        0.64958540     -0.75440242     -0.04503250
Co       -0.06679019      0.41009518      0.74256483
Co        0.13269483      1.13315012     -1.67701214
Co        2.26864484     -0.46502098     -0.77095392
Co       -0.47450499     -0.59619991     -1.35900592
Co        0.13581596     -0.46896271      0.85425370
Co       -1.62811247      1.19374494      1.26646902
Co        0.14912545     -0.49388063     -0.76788068
Co       -0.59941043      0.01102649     -2.22770592
Co       -0.04451600      0.46267439     -0.87000059
Co       -0.71612714     -1.73871002     -0.03963458
Co       -0.21837307      1.66345016     -0.06138274
Co        1.38163794     -0.56772303      0.56910788
Co        0.27807703      0.67261113     -2.34838475
Co       -2.40649819     -0.44749359      0.23040490
Co        0.80247717      1.11592449     -2.02973901
Co       -0.72586056      0.87816952     -2.14170677
Co       -2.21728096      0.45619580      0.92568998
Co       -0.35798615     -1.90057357      1.58126376
Co       -0.69043571      1.28775233      0.86910416
Co       -1.34396353      0.64989196      0.32866786
Co        0.70371330      0.03026691      2.15355771
Co       -1.89069967      0.24393285      1.63215085
Co        1.70233511      1.85606433     -0.31618861
Co       -0.86733783     -0.14351367      2.04554244
Co        2.13345065      1.13897787     -0.83992847
Co       -0.08037945     -0.61816553      2.38347055
Co       -1.25085425      0.74275870     -0.53762893
Co       -0.65538125      0.34162340     -1.36745705
Co       -0.63705919      1.74914881     -1.59942557
Co       -0.12627617     -1.82559328     -1.77159772
Co       -0.03735882     -1.10343257      1.56572086
Co        2.03325403     -1.33140599     -0.27144229
Co       -1.00239335      0.27452479      1.16123513
Co       -1.36724412      1.98528116      0.74456092
Co       -0.27955155      2.08519133      0.82437508
Co        0.86913844      1.69929570      0.13919597
Co       -2.12352485     -1.20552339      0.88358916
Co       -0.35657314     -1.40762444      0.84734635
Co       -2.04925287      1.41162487     -0.54578454
Co        0.84228423      0.59769582     -1.15879119
Co       -0.80094303      2.33728947     -0.05928652
Co        0.64104013      0.51913566      1.33544195
Co        0.77616333     -0.45624026      1.43435115
Co       -2.24587704     -0.29392699     -0.67122228
Co       -1.67065283     -0.22732832      0.84152715
Co        2.47106261      0.37263876     -0.28527518
Co        0.04483150      0.08196951      0.05802287
Co        0.99238559     -0.32358878     -1.28799057
Co        0.41997472      0.98035567      2.28117889
Co       -1.14713274     -1.51392130      1.25561910
Co        0.22155321     -1.50758549      0.00227464
Co       -0.15155100      2.27460364     -0.71077129
Co        1.99837976     -1.32655761      0.66550578
Co        0.43078848      1.87379699     -1.44789178
Co       -1.18543678      2.03649515     -0.86323898
Co        0.07177087      2.60025455      0.17880500
Co        0.34494567     -2.11298100     -0.88836368
Co        1.96241296      1.17198487      0.19833280
138
frame=10  max_jitter=0.1000A  shuffle=True  rotate=True
Co        1.97574534     -0.87193807     -1.37804249
Co       -1.39129724     -1.02953513      1.52324669
Co       -1.74178390      0.09594521     -0.09685319
Co        1.95875217      0.28331587     -1.67687026
Co        0.90146257     -2.23560841     -0.50216574
Co       -2.47089276      0.40963836     -0.29390442
Co       -2.24842636     -0.18844872     -0.97171784
Co        0.80978746     -1.04255343      0.75760677
Co        0.85404961     -0.50944437      0.17968992
Co       -0.04183779     -0.79548035     -0.34656580
Co       -0.04233467      1.86813621      0.63346350
Co        0.04058376      2.40993609     -0.99334023
Co        1.49927190     -1.58186996      0.94808681
Co        2.02025360      1.29570601      0.66994124
Co        1.78135315      0.88535708      1.50198364
Co        2.45423073     -1.33669673      0.43747915
Co       -1.12980611      0.27288456      1.58903724
Co        1.50075159     -0.82217592      0.22744111
Co        0.13514240     -0.28412587     -1.48970788
Co       -0.53318419     -0.98841913     -1.02663388
Co       -0.87176379     -1.33527325     -0.31577089
Co       -0.92038909      1.09889630     -0.81457140
Co        1.24644676     -0.87163757      1.61275879
Co       -0.07618384      0.28019951      1.56066641
Co       -0.96257242      2.23494526     -0.40160640
Co       -0.13317373     -1.38304468      1.35076015
Co       -0.38422604      1.16235774     -2.04550757
Co       -0.49532142     -0.48311104      1.42961289
Co       -1.27782222     -0.55295975     -0.66593944
Co        0.50207276      0.23616908      0.77938505
Co        0.00154697     -1.65113655     -0.68953195
Co       -1.11075233     -0.35947823      2.28986038
Co        1.51505416     -0.53381334     -2.30984573
Co       -1.70247049     -0.75615506     -1.57758353
Co        0.84000628      1.20130426     -0.69248535
Co        2.35562974      0.64942301      0.03838843
Co        0.81415760      2.09320367     -0.49064508
Co        1.56497538      1.65282180     -0.82954487
Co        0.61097362     -1.98931252     -1.48042622
Co       -1.38423245      0.63709645      0.56213832
Co       -0.42079133     -2.04226562     -1.50409450
Co       -2.39626968     -0.52427285     -0.09107661
Co       -0.75287704      1.85986341     -1.54374765
Co        0.02423315     -0.03393978     -0.05529487
Co        0.64405939     -0.45987111     -2.27985745
Co        0.87417220     -1.41755010     -0.21584857
Co       -1.75709749      0.12249879     -1.79297250
Co        1.35341209      0.99289738     -1.49451612
Co        0.75303302     -2.14036619      0.57815393
Co       -0.90641537     -2.07810248      0.44290088
Co        1.14672381      0.39638265     -2.09978148
Co        0.33675305      0.48622491      2.40996749
Co        1.58008255      1.12558700     -0.06151497
Co        0.78310495     -0.25552556      2.25617689
Co        2.17831095      0.27674622      0.83664589
Co       -0.20234510      1.20105201      2.04041976
Co       -0.69057493      1.95492362      1.36871039
Co        2.41198516     -0.42446459      0.16568095
Co       -0.19762903     -0.41343729      2.29387698
Co       -1.43138792      1.52652616      0.90160647
Co        1.57716124     -1.81447890     -0.03196637
Co        0.18112615     -1.25029399     -1.91150074
Co       -0.93375490     -1.15247610     -1.86246182
Co        2.03352365     -0.79454584      1.10414933
Co       -2.09207067     -1.10093611     -0.68572202
Co        1.35248374      0.42329607     -0.72281810
Co        1.29994722     -0.58197360     -0.64782949
Co        0.96082242     -0.33240580     -1.49998379
Co        0.65570610      1.49441723      0.33146365
Co        2.20304926      0.87529179     -0.96359515
Co       -0.57709032      0.62168971      2.29295829
Co       -1.63882602     -1.01396240      0.23174567
Co       -0.75933141     -2.27123985     -0.47694636
Co       -0.85070875     -0.39531626     -1.62829185
Co        0.63038003      2.44230554      0.60336992
Co       -1.32863343      0.24160938     -1.00433421
Co        2.24938321     -0.15662033     -0.73152242
Co       -1.59747653     -1.73271752      0.86929700
Co       -1.16899822      1.19433224      1.94224635
Co       -1.70720118      0.98735707     -0.32234601
Co       -1.29523670     -1.55541475     -1.09667233
Co       -1.87265908     -0.24359291      1.71981700
Co        0.59801406      1.23290488     -2.09094303
Co       -0.30304602     -0.40791458     -2.39899033
Co       -2.21187482     -0.88241178      0.84076268
Co       -0.84856207      1.47380502      0.24954108
Co        0.93644245      1.30015088      1.88701388
Co       -0.04327904     -2.34834514      1.04716997
Co       -2.20826687      1.15233331      0.43192045
Co        0.04544648      1.40697174     -1.30686436
Co        1.29367454     -0.35249131      1.00900854
Co        1.51872834      0.10463986      0.04910240
Co        0.75686465      0.55582825     -0.02503885
Co       -1.37873161     -0.30093644      0.87294434
Co       -0.10282317      0.78544256     -0.61220954
Co        0.88269012      0.42013720      1.61159498
Co       -0.81269419      0.58766952     -0.20965725
Co       -0.89768369     -1.85910987      1.38697651
Co        1.14880193     -1.23472002     -1.84783898
Co        1.59058762      1.90887807      0.25205780
Co        1.19364596      0.75749801      0.68475148
Co        0.85029935      1.84507775     -1.44384463
Co        2.22286323     -1.18319659     -0.50346177
Co        0.73051513     -1.85446162      1.59187166
Co       -1.72398283      1.86704778      0.12779081
Co       -1.33466907      0.98660860     -1.69026543
Co        1.21895304      1.58381358      1.02259508
Co       -0.44375450     -0.18782481     -0.79487916
Co       -0.66790403     -1.24016472      2.17511784
Co       -2.17005322      0.86440506     -1.14276903
Co       -0.09239433      2.48712410     -0.07263532
Co        0.33735337     -0.41802732      1.55809334
Co       -0.97936598      0.38542088     -2.37911537
Co        0.04703674     -1.58687528      0.43714381
Co       -1.93971357      0.76042523      1.32250834
Co       -0.95551165     -1.07132347      0.77103791
Co       -0.12393198     -0.63068145      0.60442564
Co        0.10399019      0.28583991     -2.35812621
Co        1.32666482     -1.52384515     -0.92431056
Co        0.03634606     -2.64862098     -0.83789782
Co       -0.90253899      2.33973084      0.51889744
Co       -1.57158979      1.67001183     -0.94566752
Co        0.48278460     -1.22306595      2.09399805
Co        0.52371698     -1.12393609     -1.04062838
Co       -1.67856330     -1.92013686     -0.20989288
Co        0.43528417     -0.11007216     -0.79602358
Co       -0.05795547      0.82308657      0.39312128
Co       -2.18477192      0.12191360      0.76738371
Co        0.37771446      1.11299864      1.16612830
Co        1.72910704     -0.12156058      1.73417311
Co        0.42888800      1.92525583      1.51223765
Co       -0.74362759     -0.39572122      0.13607475
Co       -0.68537219      1.01995279      1.08290498
Co        0.56637727      0.60922003     -1.39311653
Co       -0.00543846      1.65916560     -0.29380532
Co        0.00139306     -2.50819817     -0.03513810
Co       -0.48299772      0.12417538      0.77358894
Co       -0.40256593      0.57726579     -1.41578695
